Poscar file generated with pyiron       
   1.00000000000000     
     8.3566721342171331   -0.1064120896252075    0.9340117781246625
     0.1578459925210010   14.3258058000442912    0.2059466079561132
     0.0817819454941440   -0.1333979237411052    7.8981696988985250
   Cs   I    Pb
     4    12     4
Direct
  0.4982196415514816  0.1734942002322437  0.2416546207315480
  0.9617598974338388  0.3488374382567183  0.8003976937778309
  0.9591855989355572  0.6722053574938218  0.2954047240305984
  0.4980400671023124  0.8493934300600773  0.7401404485568999
  0.2555599475267130  0.0973477134889307  0.6667005474770429
  0.2040210509314616  0.4208385127660040  0.3727220219532792
  0.7273669551772610  0.1024077391944891  0.7362199031023748
  0.7328082703401194  0.4196572434063577  0.2999908704214583
  0.4538560281825467  0.3325082885899652  0.8495586906934965
  0.0058727613839475  0.1873921108869216  0.1882700510510568
  0.7356308443956484  0.5973211807163652  0.8031587020260097
  0.7198210528312311  0.9244298188415517  0.2368971296050603
  0.2092400824633293  0.6041872018412846  0.8701550206580525
  0.2463939879973490  0.9138258348409919  0.1664548615396462
  0.9920750217139529  0.8323016517321925  0.6883968662837033
  0.4636390868178575  0.6876189207178022  0.3498365339590721
  0.9907638820755897  0.0115825363333832  0.4534621292074855
  0.9901571690418256  0.0081859818211428  0.9538210977523801
  0.4679790048226130  0.5084437380652606  0.5844432159688274
  0.4665399901744697  0.5118318166677066  0.0843424962511432
 
  0.00000000E+00  0.00000000E+00  0.00000000E+00
  0.00000000E+00  0.00000000E+00  0.00000000E+00
  0.00000000E+00  0.00000000E+00  0.00000000E+00
  0.00000000E+00  0.00000000E+00  0.00000000E+00
  0.00000000E+00  0.00000000E+00  0.00000000E+00
  0.00000000E+00  0.00000000E+00  0.00000000E+00
  0.00000000E+00  0.00000000E+00  0.00000000E+00
  0.00000000E+00  0.00000000E+00  0.00000000E+00
  0.00000000E+00  0.00000000E+00  0.00000000E+00
  0.00000000E+00  0.00000000E+00  0.00000000E+00
  0.00000000E+00  0.00000000E+00  0.00000000E+00
  0.00000000E+00  0.00000000E+00  0.00000000E+00
  0.00000000E+00  0.00000000E+00  0.00000000E+00
  0.00000000E+00  0.00000000E+00  0.00000000E+00
  0.00000000E+00  0.00000000E+00  0.00000000E+00
  0.00000000E+00  0.00000000E+00  0.00000000E+00
  0.00000000E+00  0.00000000E+00  0.00000000E+00
  0.00000000E+00  0.00000000E+00  0.00000000E+00
  0.00000000E+00  0.00000000E+00  0.00000000E+00
  0.00000000E+00  0.00000000E+00  0.00000000E+00
