Poscar file generated with pyiron       
   1.00000000000000     
     8.4602571661601846    0.1286934260037199    0.4019366594954709
    -0.1855273538450895   13.9132134561375782    0.0693638615322095
    -0.3236139028639350   -0.0444721591305074    7.9943168793373136
   Cs   I    Pb
     4    12     4
Direct
  0.4725804587156979  0.1695318436849770  0.2775367250949803
  0.9680067277888761  0.3532096392219554  0.7921835527565667
  0.9629993724732997  0.6696339991775422  0.2920462088969202
  0.4773675681339722  0.8531394838185835  0.7778042141859429
  0.2345799837949442  0.1007431088799894  0.6834750326399182
  0.2055854246165054  0.4223968639658566  0.3860443201648708
  0.7180485999593571  0.1085743483786312  0.6872609012968419
  0.7218756825424537  0.4141922517274412  0.3826611442690216
  0.4587960915965877  0.3297794100584083  0.8882385386002914
  0.9810088684283328  0.1931477745749290  0.1814750556539276
  0.7284375205979928  0.6013330162135982  0.8825945092079036
  0.7121470815781191  0.9212675049198207  0.1869400845530859
  0.2124407328208362  0.6082747397004417  0.8864139672248362
  0.2282654851925754  0.9147222054233282  0.1834747542530600
  0.9655685997923662  0.8297674451838217  0.6811752936299731
  0.4753386613546514  0.6931122814309837  0.3885143979294998
  0.9733650878081500  0.0119486721511916  0.4445683967390373
  0.9737474678798319  0.0109690362892847  0.9446342249618515
  0.4669850797783326  0.5109712177276162  0.6250640721100512
  0.4666279322396867  0.5119213280905051  0.1250091155525730
 
  0.00000000E+00  0.00000000E+00  0.00000000E+00
  0.00000000E+00  0.00000000E+00  0.00000000E+00
  0.00000000E+00  0.00000000E+00  0.00000000E+00
  0.00000000E+00  0.00000000E+00  0.00000000E+00
  0.00000000E+00  0.00000000E+00  0.00000000E+00
  0.00000000E+00  0.00000000E+00  0.00000000E+00
  0.00000000E+00  0.00000000E+00  0.00000000E+00
  0.00000000E+00  0.00000000E+00  0.00000000E+00
  0.00000000E+00  0.00000000E+00  0.00000000E+00
  0.00000000E+00  0.00000000E+00  0.00000000E+00
  0.00000000E+00  0.00000000E+00  0.00000000E+00
  0.00000000E+00  0.00000000E+00  0.00000000E+00
  0.00000000E+00  0.00000000E+00  0.00000000E+00
  0.00000000E+00  0.00000000E+00  0.00000000E+00
  0.00000000E+00  0.00000000E+00  0.00000000E+00
  0.00000000E+00  0.00000000E+00  0.00000000E+00
  0.00000000E+00  0.00000000E+00  0.00000000E+00
  0.00000000E+00  0.00000000E+00  0.00000000E+00
  0.00000000E+00  0.00000000E+00  0.00000000E+00
  0.00000000E+00  0.00000000E+00  0.00000000E+00
