Poscar file generated with pyiron       
   1.00000000000000     
     8.4681056470932727    0.0232182946627893   -0.1801556282026430
    -0.0576927753365356   13.9517225872626032    0.0880593910789464
     0.2278038246377199   -0.0458309430012736    7.9856732936505628
   Cs   I    Pb
     4    12     4
Direct
  0.4793802585365806  0.1544720945409274  0.2589426283046481
  0.9683551712267798  0.3370628768797458  0.7722456116817379
  0.9714508706057396  0.6544255065177099  0.2734278261270838
  0.4763492451735283  0.8364192132967642  0.7595576193474928
  0.2297833317001216  0.0919229598033456  0.6661439899359431
  0.2158649698778328  0.3992222949381564  0.3639753897251256
  0.7132840215350907  0.0862006369800697  0.6709289636304820
  0.7322682288493001  0.4058889630487781  0.3614643107254905
  0.4738083676037574  0.3143328754881887  0.8675967622563062
  0.9666842928806714  0.1774041079166413  0.1638555137112344
  0.7284443550398847  0.5902397916640728  0.8601077703903501
  0.7195821845300221  0.8990222463613756  0.1703990540923759
  0.2112248214677734  0.5866392048232110  0.8652412437936761
  0.2362379542255843  0.9071878937687101  0.1668460030668627
  0.9813921339470145  0.8146919303404493  0.6641435195400465
  0.4624131711176471  0.6770931513925651  0.3674494675858257
  0.9747495113881568  0.9966842938791443  0.4277563422867197
  0.9747493179394691  0.9955279675580098  0.9276871322483339
  0.4701683280859681  0.4950346532096638  0.6035886173855646
  0.4712136189486502  0.4962844735456997  0.1036521837497188
 
  0.00000000E+00  0.00000000E+00  0.00000000E+00
  0.00000000E+00  0.00000000E+00  0.00000000E+00
  0.00000000E+00  0.00000000E+00  0.00000000E+00
  0.00000000E+00  0.00000000E+00  0.00000000E+00
  0.00000000E+00  0.00000000E+00  0.00000000E+00
  0.00000000E+00  0.00000000E+00  0.00000000E+00
  0.00000000E+00  0.00000000E+00  0.00000000E+00
  0.00000000E+00  0.00000000E+00  0.00000000E+00
  0.00000000E+00  0.00000000E+00  0.00000000E+00
  0.00000000E+00  0.00000000E+00  0.00000000E+00
  0.00000000E+00  0.00000000E+00  0.00000000E+00
  0.00000000E+00  0.00000000E+00  0.00000000E+00
  0.00000000E+00  0.00000000E+00  0.00000000E+00
  0.00000000E+00  0.00000000E+00  0.00000000E+00
  0.00000000E+00  0.00000000E+00  0.00000000E+00
  0.00000000E+00  0.00000000E+00  0.00000000E+00
  0.00000000E+00  0.00000000E+00  0.00000000E+00
  0.00000000E+00  0.00000000E+00  0.00000000E+00
  0.00000000E+00  0.00000000E+00  0.00000000E+00
  0.00000000E+00  0.00000000E+00  0.00000000E+00
