Poscar file generated with pyiron       
   1.00000000000000     
     8.4698519368914962    0.2376728179374700    0.0377893088920325
    -0.3635985046781844   13.9081451924396102   -0.0400924179544706
     0.0476520481273609    0.0212558297793295    8.0079102327941758
   Cs   I    Pb
     4    12     4
Direct
  0.5037620769640918  0.1663714141223684  0.2524018464692293
  0.9935960141255050  0.3512255588827951  0.7687976114129291
  0.9898933503529513  0.6666368735042930  0.2681553732982853
  0.5075190278478897  0.8508722695889140  0.7535856916370188
  0.2633922748877132  0.0989143859454379  0.6569486068936121
  0.2341351589563073  0.4188185960884281  0.3644876936545876
  0.7475013076263656  0.1052726233810877  0.6627812915078629
  0.7500371634349929  0.4127410026377821  0.3584795836924568
  0.4877824531369860  0.3271485558344314  0.8648418116536517
  0.0098908742283005  0.1906274577564150  0.1564930146539951
  0.7545839032556421  0.5998946835368071  0.8587834025061346
  0.7427619503198721  0.9181010215644715  0.1625674931591674
  0.2396283763917372  0.6051156955627052  0.8640727584179041
  0.2578774141437873  0.9127654440843831  0.1571006885825311
  0.9969732844266682  0.8273125720974923  0.6563675534029459
  0.5003641066684257  0.6905583650758099  0.3652926282335190
  0.0033206160607261  0.0094028271656998  0.4196106289355131
  0.0035961139394948  0.0084353927645635  0.9195610168940781
  0.4941884030405747  0.5084410182934951  0.6017165648453050
  0.4937646651635637  0.5092359157156694  0.1016321352233522
 
  0.00000000E+00  0.00000000E+00  0.00000000E+00
  0.00000000E+00  0.00000000E+00  0.00000000E+00
  0.00000000E+00  0.00000000E+00  0.00000000E+00
  0.00000000E+00  0.00000000E+00  0.00000000E+00
  0.00000000E+00  0.00000000E+00  0.00000000E+00
  0.00000000E+00  0.00000000E+00  0.00000000E+00
  0.00000000E+00  0.00000000E+00  0.00000000E+00
  0.00000000E+00  0.00000000E+00  0.00000000E+00
  0.00000000E+00  0.00000000E+00  0.00000000E+00
  0.00000000E+00  0.00000000E+00  0.00000000E+00
  0.00000000E+00  0.00000000E+00  0.00000000E+00
  0.00000000E+00  0.00000000E+00  0.00000000E+00
  0.00000000E+00  0.00000000E+00  0.00000000E+00
  0.00000000E+00  0.00000000E+00  0.00000000E+00
  0.00000000E+00  0.00000000E+00  0.00000000E+00
  0.00000000E+00  0.00000000E+00  0.00000000E+00
  0.00000000E+00  0.00000000E+00  0.00000000E+00
  0.00000000E+00  0.00000000E+00  0.00000000E+00
  0.00000000E+00  0.00000000E+00  0.00000000E+00
  0.00000000E+00  0.00000000E+00  0.00000000E+00
