Poscar file generated with pyiron       
   1.00000000000000     
     8.2640661760281464   -0.0220103861557883    1.3080938890050351
    -0.0753630911557158   14.6365989141446793    0.5862045219294154
     0.0812349649559604   -0.1475456286343665    7.8418170482558356
   Cs   I    Pb
     4    12     4
Direct
  0.4901188443725698  0.1833666561871195  0.2122778739381840
  0.9951595854421780  0.3627750584843058  0.7757816927790228
  0.9894892213056139  0.7031310395008821  0.2583582841857203
  0.4973266148562500  0.8416536204655384  0.7310106355660588
  0.2341943250765122  0.1317505910861460  0.6632489981419626
  0.2502454568634385  0.4144242861732877  0.3242838788763981
  0.6976183941951321  0.0879076134020196  0.7562831767452336
  0.7863764167833025  0.4576277261032681  0.2312571229369751
  0.5161117362373663  0.3465874471636758  0.7912944643219045
  0.9685630755393355  0.1988326568131515  0.1954870138036015
  0.7595440857832765  0.6159198202150122  0.7238533924361636
  0.7261819760146504  0.9293721713542580  0.2639381777664027
  0.2216153517348696  0.6011518464577943  0.8274020749660652
  0.2634076100689658  0.9454060208225565  0.1595662588842268
  0.0235094554463666  0.8495084093435669  0.6999175978692610
  0.4626258500262227  0.6959402592803092  0.2863854696598906
  0.9868823271984233  0.0262421641822049  0.4609104307847134
  0.9865433579099782  0.0231573482003955  0.9575684270087216
  0.4976790221387014  0.5194247106819457  0.5266190656310703
  0.4982719813478363  0.5224715815824214  0.0289969993376315
 
  0.00000000E+00  0.00000000E+00  0.00000000E+00
  0.00000000E+00  0.00000000E+00  0.00000000E+00
  0.00000000E+00  0.00000000E+00  0.00000000E+00
  0.00000000E+00  0.00000000E+00  0.00000000E+00
  0.00000000E+00  0.00000000E+00  0.00000000E+00
  0.00000000E+00  0.00000000E+00  0.00000000E+00
  0.00000000E+00  0.00000000E+00  0.00000000E+00
  0.00000000E+00  0.00000000E+00  0.00000000E+00
  0.00000000E+00  0.00000000E+00  0.00000000E+00
  0.00000000E+00  0.00000000E+00  0.00000000E+00
  0.00000000E+00  0.00000000E+00  0.00000000E+00
  0.00000000E+00  0.00000000E+00  0.00000000E+00
  0.00000000E+00  0.00000000E+00  0.00000000E+00
  0.00000000E+00  0.00000000E+00  0.00000000E+00
  0.00000000E+00  0.00000000E+00  0.00000000E+00
  0.00000000E+00  0.00000000E+00  0.00000000E+00
  0.00000000E+00  0.00000000E+00  0.00000000E+00
  0.00000000E+00  0.00000000E+00  0.00000000E+00
  0.00000000E+00  0.00000000E+00  0.00000000E+00
  0.00000000E+00  0.00000000E+00  0.00000000E+00
