Poscar file generated with pyiron       
   1.00000000000000     
     8.2392749226456381    0.0240395803423105    1.3542655836341180
     0.1424711916769867   14.6954492066077584   -0.8344896794314390
     0.0725537595224177   -0.0820516962440789    7.8373089502314324
   Cs   I    Pb
     4    12     4
Direct
  0.4813322885689442  0.1764205682147874  0.2783002033962964
  0.9795703888342132  0.3124427946492468  0.7514932917090575
  0.9830428934111399  0.6557071939099999  0.2898049277735441
  0.4702798176253556  0.8326908324712362  0.7344860682369760
  0.2459564332922350  0.0693053839911667  0.7031219357442646
  0.2105942882236385  0.4184482987173258  0.3216865970306871
  0.7078437954341115  0.0902706517406826  0.8126726829689843
  0.7491810769633428  0.3993962462223251  0.2128201381776423
  0.4578387444187472  0.3211969262319918  0.7612549589641169
  0.0011368090987423  0.1671438667041864  0.2622621304229351
  0.7764622023970061  0.5584691258059568  0.7341188275959512
  0.6791999699277870  0.9300279087899492  0.2908306522821186
  0.2377965564529937  0.6021999313140628  0.8335454820221916
  0.2168599485800174  0.8855457642617923  0.1918017206616641
  0.9481664477985892  0.8186725665143425  0.7263060232387736
  0.5050296964515367  0.6699293316963068  0.2982631667686634
  0.9673426597856059  0.9931034863913824  0.4969229375034584
  0.9680793740237609  0.9919312476212850  0.9994810547634935
  0.4882471786395070  0.4956670268494709  0.5280374371814957
  0.4878069753774302  0.4963802420338347  0.0253416237901512
 
  0.00000000E+00  0.00000000E+00  0.00000000E+00
  0.00000000E+00  0.00000000E+00  0.00000000E+00
  0.00000000E+00  0.00000000E+00  0.00000000E+00
  0.00000000E+00  0.00000000E+00  0.00000000E+00
  0.00000000E+00  0.00000000E+00  0.00000000E+00
  0.00000000E+00  0.00000000E+00  0.00000000E+00
  0.00000000E+00  0.00000000E+00  0.00000000E+00
  0.00000000E+00  0.00000000E+00  0.00000000E+00
  0.00000000E+00  0.00000000E+00  0.00000000E+00
  0.00000000E+00  0.00000000E+00  0.00000000E+00
  0.00000000E+00  0.00000000E+00  0.00000000E+00
  0.00000000E+00  0.00000000E+00  0.00000000E+00
  0.00000000E+00  0.00000000E+00  0.00000000E+00
  0.00000000E+00  0.00000000E+00  0.00000000E+00
  0.00000000E+00  0.00000000E+00  0.00000000E+00
  0.00000000E+00  0.00000000E+00  0.00000000E+00
  0.00000000E+00  0.00000000E+00  0.00000000E+00
  0.00000000E+00  0.00000000E+00  0.00000000E+00
  0.00000000E+00  0.00000000E+00  0.00000000E+00
  0.00000000E+00  0.00000000E+00  0.00000000E+00
