Poscar file generated with pyiron       
   1.00000000000000     
     8.2977651507682140    0.1694430465588397    1.1427853386806741
    -0.1992560556280871   14.5538897910246430   -0.5609186222822264
     0.2174489648887761    0.2271207117331548    7.8713845892136316
   Cs   I    Pb
     4    12     4
Direct
  0.4770360851115818  0.1913468105926505  0.2181784705738484
  0.9627660298049520  0.3407064150184952  0.7635397770880950
  0.9662946625875707  0.6784992300570885  0.2728079150096147
  0.4733792171704090  0.8535974915398042  0.7086703421480582
  0.2453576965418962  0.0954298278313571  0.6500662164291983
  0.1940753257724582  0.4366697479710844  0.3317551681098067
  0.7089160728434841  0.1092731546362690  0.7496329159274238
  0.7304168071555727  0.4227387641801751  0.2320350776722066
  0.4368593478383694  0.3418513514071556  0.7970706892770586
  0.0027095456032675  0.1902271797179022  0.1847549739019547
  0.7533543469756322  0.5859391959612932  0.7348649195339153
  0.6865211148528241  0.9460464673812723  0.2468687968908603
  0.2197081872382555  0.6214493598360313  0.8273509417789769
  0.2201197003607035  0.9106528401295306  0.1542546127032885
  0.9558388649530117  0.8400339548599997  0.6859869476559778
  0.4841244524410038  0.6920186130447596  0.2956661805753871
  0.9704659871488271  0.0167830354762123  0.4480093395155953
  0.9708425100897885  0.0130986286189079  0.9498564833953682
  0.4692441902763880  0.5152675244992676  0.5336523946937589
  0.4687424795658065  0.5189976094039670  0.0317819738737929
 
  0.00000000E+00  0.00000000E+00  0.00000000E+00
  0.00000000E+00  0.00000000E+00  0.00000000E+00
  0.00000000E+00  0.00000000E+00  0.00000000E+00
  0.00000000E+00  0.00000000E+00  0.00000000E+00
  0.00000000E+00  0.00000000E+00  0.00000000E+00
  0.00000000E+00  0.00000000E+00  0.00000000E+00
  0.00000000E+00  0.00000000E+00  0.00000000E+00
  0.00000000E+00  0.00000000E+00  0.00000000E+00
  0.00000000E+00  0.00000000E+00  0.00000000E+00
  0.00000000E+00  0.00000000E+00  0.00000000E+00
  0.00000000E+00  0.00000000E+00  0.00000000E+00
  0.00000000E+00  0.00000000E+00  0.00000000E+00
  0.00000000E+00  0.00000000E+00  0.00000000E+00
  0.00000000E+00  0.00000000E+00  0.00000000E+00
  0.00000000E+00  0.00000000E+00  0.00000000E+00
  0.00000000E+00  0.00000000E+00  0.00000000E+00
  0.00000000E+00  0.00000000E+00  0.00000000E+00
  0.00000000E+00  0.00000000E+00  0.00000000E+00
  0.00000000E+00  0.00000000E+00  0.00000000E+00
  0.00000000E+00  0.00000000E+00  0.00000000E+00
