Poscar file generated with pyiron       
   1.00000000000000     
     8.2797393931735765   -0.1882293237525642    1.2333613295889334
     0.2249583068473689   14.5406110951278986    0.4311868488674860
     0.1528065504992406   -0.1848534927987597    7.8800779933558802
   Cs   I    Pb
     4    12     4
Direct
  0.4890268329325071  0.1918894598703859  0.2303520517170715
  0.9790374645867863  0.3632329272703431  0.7924988271244786
  0.9774614438726138  0.7022822562465336  0.2867700485600908
  0.4910684187758847  0.8521904368232054  0.7384798094991876
  0.2376048440966925  0.1320455650585680  0.6756991232868385
  0.2305962264739370  0.4240012343300922  0.3479999536176768
  0.7027482691738282  0.0976338064537946  0.7708971066763231
  0.7648124396192930  0.4559646799978636  0.2545933329368724
  0.4966466156814603  0.3515350998383204  0.8150469453496857
  0.9723680006995156  0.2034631707934088  0.2082220838013709
  0.7452463976703932  0.6203424000432818  0.7523089168544670
  0.7250842813995425  0.9340622918103132  0.2713627074174518
  0.2074916312341203  0.6070638041821995  0.8536641148306973
  0.2620631656061044  0.9482772802877287  0.1714615218779831
  0.0176451396343294  0.8529630411173403  0.7048462584983132
  0.4521963955122184  0.7021620320677419  0.3185643741932498
  0.9871650785051842  0.0303165833303683  0.4715968015505157
  0.9866878720978514  0.0263338831615406  0.9700126888642235
  0.4817890301402057  0.5250275278881966  0.5525925002252288
  0.4826734594454207  0.5283498688939359  0.0540423695385051
 
  0.00000000E+00  0.00000000E+00  0.00000000E+00
  0.00000000E+00  0.00000000E+00  0.00000000E+00
  0.00000000E+00  0.00000000E+00  0.00000000E+00
  0.00000000E+00  0.00000000E+00  0.00000000E+00
  0.00000000E+00  0.00000000E+00  0.00000000E+00
  0.00000000E+00  0.00000000E+00  0.00000000E+00
  0.00000000E+00  0.00000000E+00  0.00000000E+00
  0.00000000E+00  0.00000000E+00  0.00000000E+00
  0.00000000E+00  0.00000000E+00  0.00000000E+00
  0.00000000E+00  0.00000000E+00  0.00000000E+00
  0.00000000E+00  0.00000000E+00  0.00000000E+00
  0.00000000E+00  0.00000000E+00  0.00000000E+00
  0.00000000E+00  0.00000000E+00  0.00000000E+00
  0.00000000E+00  0.00000000E+00  0.00000000E+00
  0.00000000E+00  0.00000000E+00  0.00000000E+00
  0.00000000E+00  0.00000000E+00  0.00000000E+00
  0.00000000E+00  0.00000000E+00  0.00000000E+00
  0.00000000E+00  0.00000000E+00  0.00000000E+00
  0.00000000E+00  0.00000000E+00  0.00000000E+00
  0.00000000E+00  0.00000000E+00  0.00000000E+00
