Poscar file generated with pyiron       
   1.00000000000000     
     8.4821494172996541    0.0393308008962941   -0.0625133067316435
    -0.1226209656388406   13.9785866009504893   -0.0332994763703347
     0.0511027357333407    0.0158325414321482    7.9728612326083192
   Cs   I    Pb
     4    12     4
Direct
  0.4871039495241603  0.1532570353375594  0.2546542634608182
  0.9760234127747378  0.3315773650463497  0.7655170735206503
  0.9843863436881870  0.6524438836954866  0.2667287589188431
  0.4766220854050669  0.8348874093946900  0.7528245535939929
  0.2339545804029574  0.0927987610801026  0.6661576137976264
  0.2301701842973422  0.3912921616934825  0.3580704530172571
  0.7174168028789376  0.0781755396720308  0.6627378699170827
  0.7459825018501416  0.4097888170851701  0.3579275272640815
  0.5011016382368955  0.3123067379256176  0.8620286766893531
  0.9647643370598924  0.1739794925953499  0.1607436049135667
  0.7277200523791061  0.5963040299550267  0.8588316852973275
  0.7304403470202525  0.8924447857946567  0.1655654939764956
  0.2113994287244245  0.5747171137424599  0.8572700469894144
  0.2474344019072550  0.9088623558309490  0.1632250088718331
  0.9982961269093020  0.8117870998195249  0.6604954299166476
  0.4598257515407180  0.6741314999195318  0.3620442312287634
  0.9832601544225686  0.9932568398340820  0.4233433227073046
  0.9807349028551618  0.9923775584216840  0.9236063064015131
  0.4792190227135467  0.4927431600919760  0.5992182653369066
  0.4796780185967058  0.4938108654158334  0.0989334492189065
 
  0.00000000E+00  0.00000000E+00  0.00000000E+00
  0.00000000E+00  0.00000000E+00  0.00000000E+00
  0.00000000E+00  0.00000000E+00  0.00000000E+00
  0.00000000E+00  0.00000000E+00  0.00000000E+00
  0.00000000E+00  0.00000000E+00  0.00000000E+00
  0.00000000E+00  0.00000000E+00  0.00000000E+00
  0.00000000E+00  0.00000000E+00  0.00000000E+00
  0.00000000E+00  0.00000000E+00  0.00000000E+00
  0.00000000E+00  0.00000000E+00  0.00000000E+00
  0.00000000E+00  0.00000000E+00  0.00000000E+00
  0.00000000E+00  0.00000000E+00  0.00000000E+00
  0.00000000E+00  0.00000000E+00  0.00000000E+00
  0.00000000E+00  0.00000000E+00  0.00000000E+00
  0.00000000E+00  0.00000000E+00  0.00000000E+00
  0.00000000E+00  0.00000000E+00  0.00000000E+00
  0.00000000E+00  0.00000000E+00  0.00000000E+00
  0.00000000E+00  0.00000000E+00  0.00000000E+00
  0.00000000E+00  0.00000000E+00  0.00000000E+00
  0.00000000E+00  0.00000000E+00  0.00000000E+00
  0.00000000E+00  0.00000000E+00  0.00000000E+00
