Poscar file generated with pyiron       
   1.00000000000000     
     8.3067360000000008    0.1047450000000000    1.0821590000000001
    -0.1257270000000000   14.5295980000000000   -0.2502030000000000
     0.2965030000000000    0.1214470000000000    7.8789199999999999
   Cs   I    Pb
     4    12     4
Direct
  0.4854410878319726  0.1924071359484074  0.2084927432847792
  0.9702624589925577  0.3477191768013057  0.7622855566406415
  0.9713193084123759  0.6862163616577845  0.2658049603839103
  0.4839185027797797  0.8539461575337484  0.7050822676491677
  0.2581373006063785  0.0996962460727815  0.6439514063345229
  0.1975718783745606  0.4405083809532329  0.3268900736562230
  0.7207803283018066  0.1136107993954312  0.7431123726623454
  0.7348703085154753  0.4267100033599149  0.2277757672584784
  0.4450235504813733  0.3451020243484706  0.7945353352433884
  0.0106910584916662  0.1951199726741777  0.1766099247386421
  0.7543398301777202  0.5930075011100371  0.7267324329038161
  0.7011618709894378  0.9473337380733113  0.2444776951248571
  0.2197530594675428  0.6220329490581307  0.8220628494364206
  0.2355386038964937  0.9179943444075178  0.1484615286756750
  0.9686835032151677  0.8443046309368185  0.6822708779897440
  0.4863978079750098  0.6959946082617847  0.2887757900353520
  0.9826014975001982  0.0217536315850992  0.4433402167234490
  0.9828700760002889  0.0176018954643098  0.9443589022468402
  0.4727128893346588  0.5184564011785611  0.5275717531901876
  0.4725338508301249  0.5225881072950429  0.0266124976669033
 
  0.00000000E+00  0.00000000E+00  0.00000000E+00
  0.00000000E+00  0.00000000E+00  0.00000000E+00
  0.00000000E+00  0.00000000E+00  0.00000000E+00
  0.00000000E+00  0.00000000E+00  0.00000000E+00
  0.00000000E+00  0.00000000E+00  0.00000000E+00
  0.00000000E+00  0.00000000E+00  0.00000000E+00
  0.00000000E+00  0.00000000E+00  0.00000000E+00
  0.00000000E+00  0.00000000E+00  0.00000000E+00
  0.00000000E+00  0.00000000E+00  0.00000000E+00
  0.00000000E+00  0.00000000E+00  0.00000000E+00
  0.00000000E+00  0.00000000E+00  0.00000000E+00
  0.00000000E+00  0.00000000E+00  0.00000000E+00
  0.00000000E+00  0.00000000E+00  0.00000000E+00
  0.00000000E+00  0.00000000E+00  0.00000000E+00
  0.00000000E+00  0.00000000E+00  0.00000000E+00
  0.00000000E+00  0.00000000E+00  0.00000000E+00
  0.00000000E+00  0.00000000E+00  0.00000000E+00
  0.00000000E+00  0.00000000E+00  0.00000000E+00
  0.00000000E+00  0.00000000E+00  0.00000000E+00
  0.00000000E+00  0.00000000E+00  0.00000000E+00
