Poscar file generated with pyiron       
   1.00000000000000     
     8.2709294165294125   -0.1975121224377306    1.2754522488792326
     0.2844524717569373   14.4635474525964103    0.2919143336555537
     0.0883564742321896   -0.1276134566285106    7.9123000274619573
   Cs   I    Pb
     4    12     4
Direct
  0.4863501776963635  0.1930027154790821  0.2326272568005469
  0.9659885907777342  0.3630553632192799  0.7967415732435101
  0.9631439073447252  0.6983317345931380  0.2935649239677110
  0.4816732072788329  0.8589382293847302  0.7316240155172015
  0.2364822778004234  0.1255684111738312  0.6701705769300983
  0.2132661035432901  0.4262663421546112  0.3564760239128982
  0.7032289524838539  0.1057966762575027  0.7626424111668898
  0.7456589874104442  0.4519399268076093  0.2629248946800795
  0.4738982936681121  0.3513605336904309  0.8262035290386422
  0.9756847613430427  0.2037510916948676  0.2001373366134479
  0.7290161633744674  0.6197374549253025  0.7629506472057245
  0.7142460784200197  0.9371724168933713  0.2641278261348945
  0.1935437120542219  0.6097913194991567  0.8598605375637595
  0.2500587647709926  0.9432346636200134  0.1670074517516497
  0.0003217463106607  0.8520681053951878  0.6991288129107812
  0.4415677805078810  0.7028863372620706  0.3288262474009682
  0.9802690687881134  0.0301359078759433  0.4655484655426856
  0.9797365893874619  0.0257064462874921  0.9648425758934202
  0.4658847309561396  0.5249534251177854  0.5612125361746059
  0.4662193864091205  0.5293651623861581  0.0619051443684038
 
  0.00000000E+00  0.00000000E+00  0.00000000E+00
  0.00000000E+00  0.00000000E+00  0.00000000E+00
  0.00000000E+00  0.00000000E+00  0.00000000E+00
  0.00000000E+00  0.00000000E+00  0.00000000E+00
  0.00000000E+00  0.00000000E+00  0.00000000E+00
  0.00000000E+00  0.00000000E+00  0.00000000E+00
  0.00000000E+00  0.00000000E+00  0.00000000E+00
  0.00000000E+00  0.00000000E+00  0.00000000E+00
  0.00000000E+00  0.00000000E+00  0.00000000E+00
  0.00000000E+00  0.00000000E+00  0.00000000E+00
  0.00000000E+00  0.00000000E+00  0.00000000E+00
  0.00000000E+00  0.00000000E+00  0.00000000E+00
  0.00000000E+00  0.00000000E+00  0.00000000E+00
  0.00000000E+00  0.00000000E+00  0.00000000E+00
  0.00000000E+00  0.00000000E+00  0.00000000E+00
  0.00000000E+00  0.00000000E+00  0.00000000E+00
  0.00000000E+00  0.00000000E+00  0.00000000E+00
  0.00000000E+00  0.00000000E+00  0.00000000E+00
  0.00000000E+00  0.00000000E+00  0.00000000E+00
  0.00000000E+00  0.00000000E+00  0.00000000E+00
