Poscar file generated with pyiron       
   1.00000000000000     
     8.4588779607974072    0.0859552103946031    0.4284061327932539
    -0.1242422723262415   13.9137850022996741    0.2221247996169909
    -0.3291874440592339   -0.1363812925699589    7.9982563675388523
   Cs   I    Pb
     4    12     4
Direct
  0.4772069594205043  0.1666205030977815  0.2781200667442962
  0.9701549869755102  0.3503405761830437  0.7941755411274394
  0.9648399105191108  0.6667749224127293  0.2931217875971883
  0.4807472998075135  0.8501611353698099  0.7795260407356833
  0.2381452034694193  0.0973754583097582  0.6834749720598035
  0.2082050228959540  0.4195598590788742  0.3889069714981333
  0.7217745132047410  0.1057167600361431  0.6892627314979783
  0.7243265639141436  0.4115739885640454  0.3837590469405437
  0.4606484353879691  0.3270708291613029  0.8900295558112080
  0.9854481836999162  0.1901104206600204  0.1824900397615258
  0.7307402035889147  0.5982020684666922  0.8840751987613920
  0.7155442306478528  0.9186651796384709  0.1883434890114872
  0.2150923624103519  0.6055694323725932  0.8885913776137924
  0.2310981772588789  0.9119208731640658  0.1843712012425478
  0.9684517591163373  0.8268870591447143  0.6822762914057893
  0.4775984341516782  0.6902576652160934  0.3902642170130671
  0.9765262726886810  0.0090293380148330  0.4457664081197029
  0.9774477076426572  0.0080359604564526  0.9456525819056438
  0.4694482231787216  0.5081646967082603  0.6269651324493949
  0.4687081747499462  0.5091089374024284  0.1271032296248460
 
  0.00000000E+00  0.00000000E+00  0.00000000E+00
  0.00000000E+00  0.00000000E+00  0.00000000E+00
  0.00000000E+00  0.00000000E+00  0.00000000E+00
  0.00000000E+00  0.00000000E+00  0.00000000E+00
  0.00000000E+00  0.00000000E+00  0.00000000E+00
  0.00000000E+00  0.00000000E+00  0.00000000E+00
  0.00000000E+00  0.00000000E+00  0.00000000E+00
  0.00000000E+00  0.00000000E+00  0.00000000E+00
  0.00000000E+00  0.00000000E+00  0.00000000E+00
  0.00000000E+00  0.00000000E+00  0.00000000E+00
  0.00000000E+00  0.00000000E+00  0.00000000E+00
  0.00000000E+00  0.00000000E+00  0.00000000E+00
  0.00000000E+00  0.00000000E+00  0.00000000E+00
  0.00000000E+00  0.00000000E+00  0.00000000E+00
  0.00000000E+00  0.00000000E+00  0.00000000E+00
  0.00000000E+00  0.00000000E+00  0.00000000E+00
  0.00000000E+00  0.00000000E+00  0.00000000E+00
  0.00000000E+00  0.00000000E+00  0.00000000E+00
  0.00000000E+00  0.00000000E+00  0.00000000E+00
  0.00000000E+00  0.00000000E+00  0.00000000E+00
