Poscar file generated with pyiron       
   1.00000000000000     
     8.2345799999999993    0.1337840000000000    1.4849950000000001
     0.0491020000000000   14.6570000000000000   -1.3173889999999999
    -0.0884150000000000    0.0884970000000000    7.8384729999999996
   Cs   I    Pb
     4    12     4
Direct
  0.4716171659308088  0.1878807238598910  0.2989579049464268
  0.9723268618973648  0.3283723013171951  0.7659646784716401
  0.9767138895376846  0.6686828561772984  0.3071018780378907
  0.4690482175180364  0.8476660810044621  0.7582664094918101
  0.2398188207320544  0.0831347783715017  0.7302063413007147
  0.2045985782447204  0.4332503950328714  0.3357696814108451
  0.7036178606575589  0.1046144515952392  0.8358351690052785
  0.7408034171683227  0.4111142335976652  0.2298615844715712
  0.4504920922963649  0.3352288608727676  0.7747944322938736
  0.9928417955249529  0.1809900443373493  0.2912210711377554
  0.7696315551597905  0.5732627903808805  0.7542434662358914
  0.6744291818815427  0.9434959668461858  0.3122366312500660
  0.2336610968411605  0.6174169712575974  0.8520166027249729
  0.2111347813205171  0.8986802841684991  0.2135801239939497
  0.9452934659840082  0.8319203123815342  0.7464810132882960
  0.5007734910713069  0.6841881148022537  0.3190548242651161
  0.9625762310461070  0.0064370024954172  0.5205339599509173
  0.9626995684482509  0.0056171228070454  0.0228901297735717
  0.4821223368003373  0.5097999926851671  0.5452587035408527
  0.4819749842135437  0.5103662928853794  0.0429240431511460
 
  0.00000000E+00  0.00000000E+00  0.00000000E+00
  0.00000000E+00  0.00000000E+00  0.00000000E+00
  0.00000000E+00  0.00000000E+00  0.00000000E+00
  0.00000000E+00  0.00000000E+00  0.00000000E+00
  0.00000000E+00  0.00000000E+00  0.00000000E+00
  0.00000000E+00  0.00000000E+00  0.00000000E+00
  0.00000000E+00  0.00000000E+00  0.00000000E+00
  0.00000000E+00  0.00000000E+00  0.00000000E+00
  0.00000000E+00  0.00000000E+00  0.00000000E+00
  0.00000000E+00  0.00000000E+00  0.00000000E+00
  0.00000000E+00  0.00000000E+00  0.00000000E+00
  0.00000000E+00  0.00000000E+00  0.00000000E+00
  0.00000000E+00  0.00000000E+00  0.00000000E+00
  0.00000000E+00  0.00000000E+00  0.00000000E+00
  0.00000000E+00  0.00000000E+00  0.00000000E+00
  0.00000000E+00  0.00000000E+00  0.00000000E+00
  0.00000000E+00  0.00000000E+00  0.00000000E+00
  0.00000000E+00  0.00000000E+00  0.00000000E+00
  0.00000000E+00  0.00000000E+00  0.00000000E+00
  0.00000000E+00  0.00000000E+00  0.00000000E+00
