Poscar file generated with pyiron       
   1.00000000000000     
     8.4817970000000003    0.0152120000000000   -0.0598660000000000
    -0.0836510000000000   13.9506320000000006   -0.1463150000000000
     0.0576500000000000    0.0863380000000000    7.9845620000000004
   Cs   I    Pb
     4    12     4
Direct
  0.4783971200281698  0.1492642668702118  0.2522231284454790
  0.9702605403494289  0.3310361753836233  0.7644705356607062
  0.9788217033568287  0.6492642774394710  0.2655174567509064
  0.4701681119808043  0.8308251257959469  0.7524677749388005
  0.2260707857244242  0.0900619000227465  0.6606412535897377
  0.2227465420388199  0.3897091121790055  0.3567064724746629
  0.7098486771954526  0.0761594744088896  0.6605015779471941
  0.7386418931623169  0.4049804978497846  0.3563834461375279
  0.4901330960180488  0.3089309010371508  0.8604193060822638
  0.9585487843514073  0.1716551912209212  0.1563846380189631
  0.7251471525335873  0.5909522311809354  0.8566430686827360
  0.7221565927979441  0.8902638120147230  0.1609156929408257
  0.2090253114363065  0.5751996354962046  0.8564158350131024
  0.2381926813461845  0.9044917676242150  0.1603630985454245
  0.9895590470646169  0.8089311608406717  0.6567868362735325
  0.4579393482956746  0.6715962623515708  0.3602682853551400
  0.9744959027332953  0.9907757415788936  0.4197806413900764
  0.9735201449517206  0.9897475232340227  0.9197598700987086
  0.4737503026268399  0.4898394216368658  0.5972964502426166
  0.4743447204146918  0.4907059199680361  0.0971811115310643
 
  0.00000000E+00  0.00000000E+00  0.00000000E+00
  0.00000000E+00  0.00000000E+00  0.00000000E+00
  0.00000000E+00  0.00000000E+00  0.00000000E+00
  0.00000000E+00  0.00000000E+00  0.00000000E+00
  0.00000000E+00  0.00000000E+00  0.00000000E+00
  0.00000000E+00  0.00000000E+00  0.00000000E+00
  0.00000000E+00  0.00000000E+00  0.00000000E+00
  0.00000000E+00  0.00000000E+00  0.00000000E+00
  0.00000000E+00  0.00000000E+00  0.00000000E+00
  0.00000000E+00  0.00000000E+00  0.00000000E+00
  0.00000000E+00  0.00000000E+00  0.00000000E+00
  0.00000000E+00  0.00000000E+00  0.00000000E+00
  0.00000000E+00  0.00000000E+00  0.00000000E+00
  0.00000000E+00  0.00000000E+00  0.00000000E+00
  0.00000000E+00  0.00000000E+00  0.00000000E+00
  0.00000000E+00  0.00000000E+00  0.00000000E+00
  0.00000000E+00  0.00000000E+00  0.00000000E+00
  0.00000000E+00  0.00000000E+00  0.00000000E+00
  0.00000000E+00  0.00000000E+00  0.00000000E+00
  0.00000000E+00  0.00000000E+00  0.00000000E+00
