Poscar file generated with pyiron       
   1.00000000000000     
     8.3112208073961078    0.1862765302243837    1.0199080934734879
    -0.2940437097416547   14.5617218903454013   -0.3334778292447255
     0.2744990858367489    0.2735893689180499    7.8555298185286135
   Cs   I    Pb
     4    12     4
Direct
  0.4772471835117941  0.1824442420513412  0.2199926698200097
  0.9739397404035112  0.3650073410622248  0.7878450890199049
  0.9694178239568546  0.7001320758658592  0.2765843068701409
  0.4823695208222841  0.8467911767702467  0.7310139049358215
  0.2191912982809852  0.1319307604446353  0.6653357826100325
  0.2316774437678786  0.4152871819929729  0.3424357883520617
  0.6866237070120826  0.0913050600745496  0.7527185434920610
  0.7643529345903280  0.4554363231929083  0.2548594989959320
  0.4938930250790134  0.3471467411054635  0.8124754230492284
  0.9572907178006552  0.1998463149409493  0.1947011958983249
  0.7387194506257888  0.6173565145816344  0.7512050599299946
  0.7128958796020685  0.9294631733551881  0.2565023728964177
  0.2038311616795825  0.6036606682489752  0.8472113308676916
  0.2476182035175328  0.9436744031026585  0.1601680358426336
  0.0097431850244299  0.8497669913964164  0.6936897860416097
  0.4421419806784869  0.6972791514939761  0.3134227486140301
  0.9734914547581998  0.0269116464873055  0.4586633417258338
  0.9730245571915982  0.0231668873516512  0.9564383464066385
  0.4780017533690421  0.5202155215841514  0.5488412292806960
  0.4782616946980830  0.5236476301375608  0.0511106677942405
 
  0.00000000E+00  0.00000000E+00  0.00000000E+00
  0.00000000E+00  0.00000000E+00  0.00000000E+00
  0.00000000E+00  0.00000000E+00  0.00000000E+00
  0.00000000E+00  0.00000000E+00  0.00000000E+00
  0.00000000E+00  0.00000000E+00  0.00000000E+00
  0.00000000E+00  0.00000000E+00  0.00000000E+00
  0.00000000E+00  0.00000000E+00  0.00000000E+00
  0.00000000E+00  0.00000000E+00  0.00000000E+00
  0.00000000E+00  0.00000000E+00  0.00000000E+00
  0.00000000E+00  0.00000000E+00  0.00000000E+00
  0.00000000E+00  0.00000000E+00  0.00000000E+00
  0.00000000E+00  0.00000000E+00  0.00000000E+00
  0.00000000E+00  0.00000000E+00  0.00000000E+00
  0.00000000E+00  0.00000000E+00  0.00000000E+00
  0.00000000E+00  0.00000000E+00  0.00000000E+00
  0.00000000E+00  0.00000000E+00  0.00000000E+00
  0.00000000E+00  0.00000000E+00  0.00000000E+00
  0.00000000E+00  0.00000000E+00  0.00000000E+00
  0.00000000E+00  0.00000000E+00  0.00000000E+00
  0.00000000E+00  0.00000000E+00  0.00000000E+00
