Poscar file generated with pyiron       
   1.00000000000000     
     8.3386035361111652   -0.0106637409985624    0.9948937024544305
    -0.0007879059567832   14.3623203718601662    0.2033665592845132
     0.1839071164066053   -0.1305027873039608    7.9139444977185809
   Cs   I    Pb
     4    12     4
Direct
  0.4931721945263581  0.1730048265397537  0.2391750183782579
  0.9609887647877068  0.3444930196509330  0.8043724784012047
  0.9582974723658267  0.6708328252273430  0.3006502926754888
  0.4924657733737515  0.8460425800492487  0.7382083558478570
  0.2533314872086481  0.0936627672354285  0.6667050938899080
  0.1998226764406082  0.4191071021866402  0.3734514985909922
  0.7227201540116474  0.0998207268423402  0.7490245249949129
  0.7312048120589819  0.4182451722189453  0.2892634596713423
  0.4486656709628226  0.3309964190373030  0.8469896587322105
  0.0041578112739222  0.1841854516280437  0.1930769424693206
  0.7354363178639225  0.5922076262294088  0.7915779045870304
  0.7132188695602857  0.9242873305568124  0.2489810911844493
  0.2068043912716767  0.6031948400298589  0.8708671020976693
  0.2411811945048418  0.9098948050072998  0.1682357956200831
  0.9862331276318015  0.8306854161069794  0.6941955907864028
  0.4610279784273357  0.6846345669846582  0.3467642340678573
  0.9862988750515500  0.0093247283788293  0.4586652469300800
  0.9861854502154354  0.0056043037602374  0.9590855125659296
  0.4648560674079797  0.5059431472046367  0.5811601534898219
  0.4637880464853273  0.5098088952241202  0.0809355481213009
 
  0.00000000E+00  0.00000000E+00  0.00000000E+00
  0.00000000E+00  0.00000000E+00  0.00000000E+00
  0.00000000E+00  0.00000000E+00  0.00000000E+00
  0.00000000E+00  0.00000000E+00  0.00000000E+00
  0.00000000E+00  0.00000000E+00  0.00000000E+00
  0.00000000E+00  0.00000000E+00  0.00000000E+00
  0.00000000E+00  0.00000000E+00  0.00000000E+00
  0.00000000E+00  0.00000000E+00  0.00000000E+00
  0.00000000E+00  0.00000000E+00  0.00000000E+00
  0.00000000E+00  0.00000000E+00  0.00000000E+00
  0.00000000E+00  0.00000000E+00  0.00000000E+00
  0.00000000E+00  0.00000000E+00  0.00000000E+00
  0.00000000E+00  0.00000000E+00  0.00000000E+00
  0.00000000E+00  0.00000000E+00  0.00000000E+00
  0.00000000E+00  0.00000000E+00  0.00000000E+00
  0.00000000E+00  0.00000000E+00  0.00000000E+00
  0.00000000E+00  0.00000000E+00  0.00000000E+00
  0.00000000E+00  0.00000000E+00  0.00000000E+00
  0.00000000E+00  0.00000000E+00  0.00000000E+00
  0.00000000E+00  0.00000000E+00  0.00000000E+00
