Poscar file generated with pyiron       
   1.00000000000000     
     8.2312480204553378    0.1805435314722415    1.4746459183283236
     0.0173450287099451   14.6187335892861192   -1.3737141922522724
    -0.0472083369047571    0.1592346197227189    7.8492967425203961
   Cs   I    Pb
     4    12     4
Direct
  0.4726984673322431  0.1923944922378859  0.2965616733720974
  0.9713347150180306  0.3331291991575155  0.7665462902928100
  0.9718426572118852  0.6763620626052751  0.3057533015741558
  0.4719696242222063  0.8492578733236875  0.7569430196416592
  0.2425495357920533  0.0878908935669229  0.7250617268293321
  0.2022853140378162  0.4374151311013524  0.3376363430562558
  0.7038566164177816  0.1079576917635194  0.8336616515339346
  0.7408534222780212  0.4172204535351443  0.2290934797639444
  0.4521289546758715  0.3390269937635588  0.7759192858257016
  0.9923316015925641  0.1862110626742143  0.2870275014251292
  0.7647820376030056  0.5802562766985087  0.7529116242980334
  0.6800004110466303  0.9450604115468305  0.3098398207670309
  0.2281872757836259  0.6197642254134048  0.8523586952512154
  0.2168366385860445  0.9057153721084790  0.2104454052704504
  0.9508084968018362  0.8365313000759752  0.7444438407420354
  0.4936730265342303  0.6886973009330498  0.3183520047070885
  0.9651611439892229  0.0113300447594300  0.5177857010449575
  0.9659269795778349  0.0105882413028443  0.0198147266724311
  0.4795992384785074  0.5138729570271049  0.5450234230599784
  0.4787916129226033  0.5147506520935172  0.0429517183284651
 
  0.00000000E+00  0.00000000E+00  0.00000000E+00
  0.00000000E+00  0.00000000E+00  0.00000000E+00
  0.00000000E+00  0.00000000E+00  0.00000000E+00
  0.00000000E+00  0.00000000E+00  0.00000000E+00
  0.00000000E+00  0.00000000E+00  0.00000000E+00
  0.00000000E+00  0.00000000E+00  0.00000000E+00
  0.00000000E+00  0.00000000E+00  0.00000000E+00
  0.00000000E+00  0.00000000E+00  0.00000000E+00
  0.00000000E+00  0.00000000E+00  0.00000000E+00
  0.00000000E+00  0.00000000E+00  0.00000000E+00
  0.00000000E+00  0.00000000E+00  0.00000000E+00
  0.00000000E+00  0.00000000E+00  0.00000000E+00
  0.00000000E+00  0.00000000E+00  0.00000000E+00
  0.00000000E+00  0.00000000E+00  0.00000000E+00
  0.00000000E+00  0.00000000E+00  0.00000000E+00
  0.00000000E+00  0.00000000E+00  0.00000000E+00
  0.00000000E+00  0.00000000E+00  0.00000000E+00
  0.00000000E+00  0.00000000E+00  0.00000000E+00
  0.00000000E+00  0.00000000E+00  0.00000000E+00
  0.00000000E+00  0.00000000E+00  0.00000000E+00
