Poscar file generated with pyiron       
   1.00000000000000     
     8.2214192599761216    0.1572349378368914    1.4826250796218325
     0.1269968034095247   14.5515498760445414   -1.4751270306831876
    -0.0333244108196950    0.1232935917988066    7.8850877006191116
   Cs   I    Pb
     4    12     4
Direct
  0.4731500653016612  0.1925866640871467  0.2986952516514517
  0.9772075887639875  0.3430050754393258  0.7627719743276882
  0.9702476802023873  0.6854599024122234  0.3019918327093366
  0.4788790569732085  0.8498538251137655  0.7593143187851341
  0.2446906824246531  0.0961515896601090  0.7330397818513024
  0.2046281473640052  0.4390765503132017  0.3278490729017465
  0.7058045561200856  0.1111275270163376  0.8401169180125084
  0.7436138443287451  0.4245285850236238  0.2205983022589774
  0.4664608351523148  0.3428890759874876  0.7610663359274517
  0.9826108067064191  0.1925484479077592  0.2998389566962326
  0.7555789722970419  0.5931265481617567  0.7485267606988100
  0.6935905453257301  0.9421389036478398  0.3123277747355871
  0.2182686096195511  0.6173741979883977  0.8501615932058321
  0.2307329324557883  0.9180815977101263  0.2108478982353637
  0.9663825743165843  0.8417861455827178  0.7444573249931986
  0.4822171661743705  0.6936405401584238  0.3165015962852585
  0.9707129438336313  0.0170785684023264  0.5230582630560600
  0.9714922649502917  0.0166543197670561  0.0240350947936876
  0.4784188096982159  0.5183345046312612  0.5377162114149867
  0.4776068318815615  0.5187856752124500  0.0367695577271530
 
  0.00000000E+00  0.00000000E+00  0.00000000E+00
  0.00000000E+00  0.00000000E+00  0.00000000E+00
  0.00000000E+00  0.00000000E+00  0.00000000E+00
  0.00000000E+00  0.00000000E+00  0.00000000E+00
  0.00000000E+00  0.00000000E+00  0.00000000E+00
  0.00000000E+00  0.00000000E+00  0.00000000E+00
  0.00000000E+00  0.00000000E+00  0.00000000E+00
  0.00000000E+00  0.00000000E+00  0.00000000E+00
  0.00000000E+00  0.00000000E+00  0.00000000E+00
  0.00000000E+00  0.00000000E+00  0.00000000E+00
  0.00000000E+00  0.00000000E+00  0.00000000E+00
  0.00000000E+00  0.00000000E+00  0.00000000E+00
  0.00000000E+00  0.00000000E+00  0.00000000E+00
  0.00000000E+00  0.00000000E+00  0.00000000E+00
  0.00000000E+00  0.00000000E+00  0.00000000E+00
  0.00000000E+00  0.00000000E+00  0.00000000E+00
  0.00000000E+00  0.00000000E+00  0.00000000E+00
  0.00000000E+00  0.00000000E+00  0.00000000E+00
  0.00000000E+00  0.00000000E+00  0.00000000E+00
  0.00000000E+00  0.00000000E+00  0.00000000E+00
