Poscar file generated with pyiron       
   1.00000000000000     
     8.2439059986696392    0.0815991121742797    1.3687464776615996
     0.0522381226220830   14.6975274541894372   -0.9676137488368820
     0.0387010240311070   -0.0700234603332578    7.8405943559872604
   Cs   I    Pb
     4    12     4
Direct
  0.4766913879012961  0.1756049203844819  0.2830668258968616
  0.9762087816994361  0.3119860628197928  0.7512691887538082
  0.9813886243797477  0.6528987754695872  0.2938477885344885
  0.4689231026514724  0.8335716178501905  0.7411998791885542
  0.2419344667647293  0.0690527406766799  0.7113008099837043
  0.2101087545582131  0.4176969500528493  0.3237112821066366
  0.7046512995077037  0.0895987674231081  0.8193342824763741
  0.7475315885139838  0.3978767825296620  0.2161606067711874
  0.4557538240154564  0.3207014395548214  0.7625070888493485
  0.9975084458764977  0.1663034572064402  0.2724023702741994
  0.7759074244667888  0.5577784287940630  0.7399093002857429
  0.6752638082773139  0.9298975565668010  0.2954112297515575
  0.2383593743653549  0.6026918115673557  0.8380657553990047
  0.2119785409668544  0.8836095862095962  0.1973604546171390
  0.9461048831699254  0.8176882838260922  0.7308400838209642
  0.5046531569652613  0.6694094261342379  0.3042106418304803
  0.9640499237840970  0.9918240045158675  0.5033669637916405
  0.9646397105069661  0.9912625100786159  0.0059526506386837
  0.4873180340627437  0.4952936301759642  0.5320677959762291
  0.4871656692798548  0.4957533436532758  0.0292677945707634
 
  0.00000000E+00  0.00000000E+00  0.00000000E+00
  0.00000000E+00  0.00000000E+00  0.00000000E+00
  0.00000000E+00  0.00000000E+00  0.00000000E+00
  0.00000000E+00  0.00000000E+00  0.00000000E+00
  0.00000000E+00  0.00000000E+00  0.00000000E+00
  0.00000000E+00  0.00000000E+00  0.00000000E+00
  0.00000000E+00  0.00000000E+00  0.00000000E+00
  0.00000000E+00  0.00000000E+00  0.00000000E+00
  0.00000000E+00  0.00000000E+00  0.00000000E+00
  0.00000000E+00  0.00000000E+00  0.00000000E+00
  0.00000000E+00  0.00000000E+00  0.00000000E+00
  0.00000000E+00  0.00000000E+00  0.00000000E+00
  0.00000000E+00  0.00000000E+00  0.00000000E+00
  0.00000000E+00  0.00000000E+00  0.00000000E+00
  0.00000000E+00  0.00000000E+00  0.00000000E+00
  0.00000000E+00  0.00000000E+00  0.00000000E+00
  0.00000000E+00  0.00000000E+00  0.00000000E+00
  0.00000000E+00  0.00000000E+00  0.00000000E+00
  0.00000000E+00  0.00000000E+00  0.00000000E+00
  0.00000000E+00  0.00000000E+00  0.00000000E+00
