Poscar file generated with pyiron       
   1.00000000000000     
     8.3210349742175307    0.1462117118009232    1.0628987653022148
    -0.2292840062496440   14.5562539495498307   -0.3693124789557570
     0.2843936495200541    0.2842884447478580    7.8520524501432964
   Cs   I    Pb
     4    12     4
Direct
  0.4803019692842408  0.1837744965084588  0.2176150321863962
  0.9728434182280919  0.3579748245461130  0.7813384167020666
  0.9713525500148682  0.6958453250084023  0.2734478501128140
  0.4829279815743716  0.8453295273951824  0.7271616287965968
  0.2272779118623428  0.1262183017386353  0.6644598939727655
  0.2264857232210888  0.4153379264478883  0.3347472099903985
  0.6934047513169690  0.0895935848022238  0.7567365587660253
  0.7600604959234784  0.4509706690086806  0.2426909010117388
  0.4927394580032933  0.3446035977406651  0.8030297087298469
  0.9607031513314584  0.1967557363196681  0.1970829349676998
  0.7367304624098264  0.6147982875446698  0.7399856217613330
  0.7174344922701162  0.9265241645472454  0.2593937265615459
  0.2007742159255080  0.5996094984143080  0.8390368963824097
  0.2538560333851716  0.9423162249456621  0.1602713315859627
  0.0115553177493174  0.8462184101378392  0.6956567862636984
  0.4435844836921573  0.6951098618346390  0.3045146947692962
  0.9784402580633557  0.0233294972549399  0.4601380359658911
  0.9778683295772949  0.0198961054857508  0.9584223829258549
  0.4756639619228844  0.5177325208342628  0.5394950410757228
  0.4761623247075660  0.5216948370336935  0.0410767429753454
 
  0.00000000E+00  0.00000000E+00  0.00000000E+00
  0.00000000E+00  0.00000000E+00  0.00000000E+00
  0.00000000E+00  0.00000000E+00  0.00000000E+00
  0.00000000E+00  0.00000000E+00  0.00000000E+00
  0.00000000E+00  0.00000000E+00  0.00000000E+00
  0.00000000E+00  0.00000000E+00  0.00000000E+00
  0.00000000E+00  0.00000000E+00  0.00000000E+00
  0.00000000E+00  0.00000000E+00  0.00000000E+00
  0.00000000E+00  0.00000000E+00  0.00000000E+00
  0.00000000E+00  0.00000000E+00  0.00000000E+00
  0.00000000E+00  0.00000000E+00  0.00000000E+00
  0.00000000E+00  0.00000000E+00  0.00000000E+00
  0.00000000E+00  0.00000000E+00  0.00000000E+00
  0.00000000E+00  0.00000000E+00  0.00000000E+00
  0.00000000E+00  0.00000000E+00  0.00000000E+00
  0.00000000E+00  0.00000000E+00  0.00000000E+00
  0.00000000E+00  0.00000000E+00  0.00000000E+00
  0.00000000E+00  0.00000000E+00  0.00000000E+00
  0.00000000E+00  0.00000000E+00  0.00000000E+00
  0.00000000E+00  0.00000000E+00  0.00000000E+00
