Poscar file generated with pyiron       
   1.00000000000000     
     8.2434300210068052    0.1357570554519752    1.4305707618805583
     0.1732772381780885   14.5139667139078625   -1.4742493357291768
    -0.0261136751872912    0.0000718373287928    7.8980889087554997
   Cs   I    Pb
     4    12     4
Direct
  0.4707111387108699  0.1868629907733929  0.2919935253320862
  0.9886202250165264  0.3491319969016579  0.7536427611663782
  0.9722639763398586  0.6858222516736912  0.2907223491823825
  0.4868284128049084  0.8502097370644642  0.7545624651593021
  0.2416307760090460  0.1030497493680586  0.7365810241136560
  0.2170687741659579  0.4334176534037358  0.3093574670958680
  0.7043621702918462  0.1064414959708647  0.8368342379775763
  0.7541672721189733  0.4288047624265926  0.2087980977511784
  0.4875600731753564  0.3420925994825190  0.7405868755376662
  0.9714138577698259  0.1938779339758075  0.3051223344819113
  0.7540939172935485  0.6001705298736792  0.7423050164919752
  0.7053970824412374  0.9357133067369771  0.3033249241070176
  0.2180056459524438  0.6110069044194305  0.8402504932563397
  0.2415079170416418  0.9251032444486682  0.2053078477802649
  0.9840892799060621  0.8419869625919962  0.7340722168028466
  0.4757550539149195  0.6939665503977963  0.3113780448323626
  0.9746599985582819  0.0179825609109499  0.5200487376078149
  0.9751642730290395  0.0176476165059845  0.0202796195860791
  0.4847120723176521  0.5179445110782456  0.5255302575263293
  0.4839770356977423  0.5182738739519016  0.0253273945799040
 
  0.00000000E+00  0.00000000E+00  0.00000000E+00
  0.00000000E+00  0.00000000E+00  0.00000000E+00
  0.00000000E+00  0.00000000E+00  0.00000000E+00
  0.00000000E+00  0.00000000E+00  0.00000000E+00
  0.00000000E+00  0.00000000E+00  0.00000000E+00
  0.00000000E+00  0.00000000E+00  0.00000000E+00
  0.00000000E+00  0.00000000E+00  0.00000000E+00
  0.00000000E+00  0.00000000E+00  0.00000000E+00
  0.00000000E+00  0.00000000E+00  0.00000000E+00
  0.00000000E+00  0.00000000E+00  0.00000000E+00
  0.00000000E+00  0.00000000E+00  0.00000000E+00
  0.00000000E+00  0.00000000E+00  0.00000000E+00
  0.00000000E+00  0.00000000E+00  0.00000000E+00
  0.00000000E+00  0.00000000E+00  0.00000000E+00
  0.00000000E+00  0.00000000E+00  0.00000000E+00
  0.00000000E+00  0.00000000E+00  0.00000000E+00
  0.00000000E+00  0.00000000E+00  0.00000000E+00
  0.00000000E+00  0.00000000E+00  0.00000000E+00
  0.00000000E+00  0.00000000E+00  0.00000000E+00
  0.00000000E+00  0.00000000E+00  0.00000000E+00
