Poscar file generated with pyiron       
   1.00000000000000     
     8.2898818322315329    0.0741128762292844    1.0987488689559515
    -0.0059953956185576   14.6859896771089584   -0.6579792270970103
     0.2903931474799025   -0.0575874525201914    7.8214938459769625
   Cs   I    Pb
     4    12     4
Direct
  0.4820972185909967  0.1970457135242367  0.2398579472113388
  0.9772716475358861  0.3336296110589869  0.7320531653147131
  0.9832569856247771  0.6754767069998440  0.2650013762210044
  0.4763550844718887  0.8551773556813260  0.7085114654003537
  0.2483146426070756  0.0915216577692920  0.6674055933652074
  0.2115059608222285  0.4392943638128715  0.3054881196566394
  0.7103270975326652  0.1094954673432684  0.7749910090573500
  0.7494117227168401  0.4210271732789054  0.1980351749182927
  0.4546366519040549  0.3426032850795069  0.7523909388231494
  0.0056590626559943  0.1880724119588813  0.2205793720092273
  0.7771959943153428  0.5801070037103460  0.7158977089075843
  0.6825058508345820  0.9507802415575336  0.2571006660103782
  0.2406921685888695  0.6246291755582907  0.8114181241967593
  0.2188183247997657  0.9058010528480099  0.1617855119251255
  0.9537734562699638  0.8393351337699897  0.6945877852877129
  0.5061243246411238  0.6914027999517918  0.2785544057814118
  0.9709314850517790  0.0140368788765219  0.4625170126243052
  0.9717873864665580  0.0124213556114553  0.9654301165734457
  0.4889170103729688  0.5166445840733294  0.5105149922400288
  0.4881070915137105  0.5182910349264216  0.0076337943045057
 
  0.00000000E+00  0.00000000E+00  0.00000000E+00
  0.00000000E+00  0.00000000E+00  0.00000000E+00
  0.00000000E+00  0.00000000E+00  0.00000000E+00
  0.00000000E+00  0.00000000E+00  0.00000000E+00
  0.00000000E+00  0.00000000E+00  0.00000000E+00
  0.00000000E+00  0.00000000E+00  0.00000000E+00
  0.00000000E+00  0.00000000E+00  0.00000000E+00
  0.00000000E+00  0.00000000E+00  0.00000000E+00
  0.00000000E+00  0.00000000E+00  0.00000000E+00
  0.00000000E+00  0.00000000E+00  0.00000000E+00
  0.00000000E+00  0.00000000E+00  0.00000000E+00
  0.00000000E+00  0.00000000E+00  0.00000000E+00
  0.00000000E+00  0.00000000E+00  0.00000000E+00
  0.00000000E+00  0.00000000E+00  0.00000000E+00
  0.00000000E+00  0.00000000E+00  0.00000000E+00
  0.00000000E+00  0.00000000E+00  0.00000000E+00
  0.00000000E+00  0.00000000E+00  0.00000000E+00
  0.00000000E+00  0.00000000E+00  0.00000000E+00
  0.00000000E+00  0.00000000E+00  0.00000000E+00
  0.00000000E+00  0.00000000E+00  0.00000000E+00
