Poscar file generated with pyiron       
   1.00000000000000     
     8.4801033966926109    0.0052409018648962   -0.0412209896863998
    -0.0635313542047381   13.9821506063600580   -0.0127648069514159
     0.0999549636285472    0.0108567620465517    7.9705038680152622
   Cs   I    Pb
     4    12     4
Direct
  0.4807554303217027  0.1513221815909906  0.2601535572295451
  0.9655218875003939  0.3323354282810878  0.7721709532395090
  0.9729303247936191  0.6526739851524221  0.2717094305899329
  0.4736761709092986  0.8326651529106711  0.7588585392038484
  0.2280049590610132  0.0906148444467456  0.6698489721321519
  0.2210208532334239  0.3908967497148604  0.3648220208008178
  0.7113348956211228  0.0788620725886697  0.6723847246461754
  0.7373270135122851  0.4068260354735094  0.3589449219292127
  0.4855322284177277  0.3106772146739549  0.8665185697192171
  0.9635133891816589  0.1729817737068416  0.1665473121084161
  0.7239738516035136  0.5912125725109351  0.8603306467920449
  0.7206789790432900  0.8938059485856606  0.1742865376168466
  0.2067796927331659  0.5769108654989012  0.8633374457074646
  0.2385008393694887  0.9055098617836890  0.1682666137802239
  0.9881958795226639  0.8108845402528682  0.6672180956210886
  0.4538486430625902  0.6726393089721572  0.3664697517234402
  0.9760131169696669  0.9924634684329712  0.4303315164251420
  0.9745158189812944  0.9914451307494619  0.9303086952238794
  0.4714402130540445  0.4911625454924734  0.6026975047232740
  0.4712086054690254  0.4920795593405745  0.1030017634649417
 
  0.00000000E+00  0.00000000E+00  0.00000000E+00
  0.00000000E+00  0.00000000E+00  0.00000000E+00
  0.00000000E+00  0.00000000E+00  0.00000000E+00
  0.00000000E+00  0.00000000E+00  0.00000000E+00
  0.00000000E+00  0.00000000E+00  0.00000000E+00
  0.00000000E+00  0.00000000E+00  0.00000000E+00
  0.00000000E+00  0.00000000E+00  0.00000000E+00
  0.00000000E+00  0.00000000E+00  0.00000000E+00
  0.00000000E+00  0.00000000E+00  0.00000000E+00
  0.00000000E+00  0.00000000E+00  0.00000000E+00
  0.00000000E+00  0.00000000E+00  0.00000000E+00
  0.00000000E+00  0.00000000E+00  0.00000000E+00
  0.00000000E+00  0.00000000E+00  0.00000000E+00
  0.00000000E+00  0.00000000E+00  0.00000000E+00
  0.00000000E+00  0.00000000E+00  0.00000000E+00
  0.00000000E+00  0.00000000E+00  0.00000000E+00
  0.00000000E+00  0.00000000E+00  0.00000000E+00
  0.00000000E+00  0.00000000E+00  0.00000000E+00
  0.00000000E+00  0.00000000E+00  0.00000000E+00
  0.00000000E+00  0.00000000E+00  0.00000000E+00
