Poscar file generated with pyiron       
   1.00000000000000     
     8.3214963714689194   -0.2085009655087430    1.1200278966070527
     0.3245986182026074   14.3510861497429527    0.2432350440799497
     0.0027993009704395   -0.1364711688236825    7.9047367356785978
   Cs   I    Pb
     4    12     4
Direct
  0.4890511948560818  0.1848924646630686  0.2357888512340184
  0.9516114997434320  0.3576788484823102  0.7945245221392432
  0.9476334158431325  0.6843579304662242  0.2864754260411086
  0.4843487972751573  0.8578507807161923  0.7278844919069212
  0.2440940963462314  0.1072201090257993  0.6605750866836316
  0.1973656917210758  0.4250890133019762  0.3636547986756400
  0.7148488068517521  0.1092628273878251  0.7350307690946435
  0.7274195039144876  0.4329460126755409  0.2827548499871371
  0.4505107831881652  0.3415499346389898  0.8381985130527786
  0.9921333068272361  0.1957224095907062  0.1832155579634985
  0.7218979594416955  0.6087104792279591  0.7868344004186200
  0.7079459289396864  0.9335241118749815  0.2386868884877188
  0.1928022767687617  0.6081118196726311  0.8608902801180823
  0.2372677160532395  0.9238270618124546  0.1583373815353818
  0.9845363950380533  0.8414428819419137  0.6840093778568508
  0.4454987143756518  0.6957416169879963  0.3390737169313465
  0.9807075500682986  0.0205191359557658  0.4491099189692874
  0.9786669170527557  0.0168203018298448  0.9494594933873294
  0.4573613014044568  0.5167924090336156  0.5725880599858516
  0.4553022662870789  0.5207998957983130  0.0727963046749175
 
  0.00000000E+00  0.00000000E+00  0.00000000E+00
  0.00000000E+00  0.00000000E+00  0.00000000E+00
  0.00000000E+00  0.00000000E+00  0.00000000E+00
  0.00000000E+00  0.00000000E+00  0.00000000E+00
  0.00000000E+00  0.00000000E+00  0.00000000E+00
  0.00000000E+00  0.00000000E+00  0.00000000E+00
  0.00000000E+00  0.00000000E+00  0.00000000E+00
  0.00000000E+00  0.00000000E+00  0.00000000E+00
  0.00000000E+00  0.00000000E+00  0.00000000E+00
  0.00000000E+00  0.00000000E+00  0.00000000E+00
  0.00000000E+00  0.00000000E+00  0.00000000E+00
  0.00000000E+00  0.00000000E+00  0.00000000E+00
  0.00000000E+00  0.00000000E+00  0.00000000E+00
  0.00000000E+00  0.00000000E+00  0.00000000E+00
  0.00000000E+00  0.00000000E+00  0.00000000E+00
  0.00000000E+00  0.00000000E+00  0.00000000E+00
  0.00000000E+00  0.00000000E+00  0.00000000E+00
  0.00000000E+00  0.00000000E+00  0.00000000E+00
  0.00000000E+00  0.00000000E+00  0.00000000E+00
  0.00000000E+00  0.00000000E+00  0.00000000E+00
