Poscar file generated with pyiron       
   1.00000000000000     
     8.2697988111716594   -0.2045083586923973    1.2769252374611726
     0.2622609210371057   14.5086206645596540    0.4083527187780951
     0.1035927330117427   -0.1590938658696897    7.8973701580358533
   Cs   I    Pb
     4    12     4
Direct
  0.4890115425234641  0.1921668863380309  0.2316605961521320
  0.9739587662819392  0.3646137605294025  0.7956539677767653
  0.9701662471996761  0.7028988954701433  0.2876986175589040
  0.4873380625863893  0.8557677040184030  0.7365331734473590
  0.2376680294907711  0.1300393711916327  0.6738471958708560
  0.2264241327691239  0.4241596543296178  0.3533083567531660
  0.7037836456416801  0.1028873878186110  0.7670128819547823
  0.7595344212035322  0.4559014486870687  0.2590106824141762
  0.4873150092467418  0.3523448828227105  0.8222876542129990
  0.9755066118780518  0.2046071358016794  0.2044652751187882
  0.7398372076805746  0.6207827768360207  0.7573112306504515
  0.7189740124473812  0.9376554223615593  0.2704338599063719
  0.2034104838067012  0.6091879870087031  0.8568782630082963
  0.2560377778131099  0.9462525172554933  0.1701804560801793
  0.0091389404190819  0.8535911516474896  0.7043437466966371
  0.4479572000205703  0.7030788435149048  0.3235873058358538
  0.9845133564548409  0.0314001993060056  0.4697680045280227
  0.9837371042307121  0.0272328699569662  0.9682934993400223
  0.4768265058087847  0.5254026671387122  0.5571591428848790
  0.4769759394613619  0.5296428388951118  0.0587782868570818
 
  0.00000000E+00  0.00000000E+00  0.00000000E+00
  0.00000000E+00  0.00000000E+00  0.00000000E+00
  0.00000000E+00  0.00000000E+00  0.00000000E+00
  0.00000000E+00  0.00000000E+00  0.00000000E+00
  0.00000000E+00  0.00000000E+00  0.00000000E+00
  0.00000000E+00  0.00000000E+00  0.00000000E+00
  0.00000000E+00  0.00000000E+00  0.00000000E+00
  0.00000000E+00  0.00000000E+00  0.00000000E+00
  0.00000000E+00  0.00000000E+00  0.00000000E+00
  0.00000000E+00  0.00000000E+00  0.00000000E+00
  0.00000000E+00  0.00000000E+00  0.00000000E+00
  0.00000000E+00  0.00000000E+00  0.00000000E+00
  0.00000000E+00  0.00000000E+00  0.00000000E+00
  0.00000000E+00  0.00000000E+00  0.00000000E+00
  0.00000000E+00  0.00000000E+00  0.00000000E+00
  0.00000000E+00  0.00000000E+00  0.00000000E+00
  0.00000000E+00  0.00000000E+00  0.00000000E+00
  0.00000000E+00  0.00000000E+00  0.00000000E+00
  0.00000000E+00  0.00000000E+00  0.00000000E+00
  0.00000000E+00  0.00000000E+00  0.00000000E+00
