Poscar file generated with pyiron       
   1.00000000000000     
     8.2679589693709339    0.0439432387770627    1.3015533650428088
    -0.1845875360428136   14.6080786628681238    0.5678581311342032
     0.0848038556856216   -0.1752248064293915    7.8543594032386324
   Cs   I    Pb
     4    12     4
Direct
  0.4880927500273937  0.1823542891551704  0.2093377354655123
  0.9895390675747154  0.3603498703577411  0.7732827565179721
  0.9845745565077982  0.7001668373740965  0.2590232048422459
  0.4934956906445450  0.8422905453262181  0.7247039656360047
  0.2330404376890667  0.1291460433200400  0.6586107927219476
  0.2442902927188614  0.4139587195246050  0.3232734377752226
  0.6975096927895476  0.0876042696325230  0.7518335220051762
  0.7798338744176381  0.4547420654810415  0.2303020445743205
  0.5096055524597731  0.3451392318827196  0.7910354199952777
  0.9679272001919669  0.1973824758435844  0.1909794122633061
  0.7540269173270090  0.6144111250179130  0.7247245621170908
  0.7242977277387322  0.9278478865317353  0.2571393706013503
  0.2166632624468943  0.5998985455823455  0.8271968853150952
  0.2612796613264712  0.9429244185159694  0.1546749307805601
  0.0203333577829729  0.8477890854689375  0.6926885908385525
  0.4578250539559708  0.6948639100704761  0.2890071075419056
  0.9854733938143188  0.0245399877337736  0.4552336454432755
  0.9849442458974615  0.0212581897811655  0.9527470008470956
  0.4922482234312172  0.5180250009132706  0.5265629488290975
  0.4928753491562831  0.5214402277161813  0.0288863147304223
 
  0.00000000E+00  0.00000000E+00  0.00000000E+00
  0.00000000E+00  0.00000000E+00  0.00000000E+00
  0.00000000E+00  0.00000000E+00  0.00000000E+00
  0.00000000E+00  0.00000000E+00  0.00000000E+00
  0.00000000E+00  0.00000000E+00  0.00000000E+00
  0.00000000E+00  0.00000000E+00  0.00000000E+00
  0.00000000E+00  0.00000000E+00  0.00000000E+00
  0.00000000E+00  0.00000000E+00  0.00000000E+00
  0.00000000E+00  0.00000000E+00  0.00000000E+00
  0.00000000E+00  0.00000000E+00  0.00000000E+00
  0.00000000E+00  0.00000000E+00  0.00000000E+00
  0.00000000E+00  0.00000000E+00  0.00000000E+00
  0.00000000E+00  0.00000000E+00  0.00000000E+00
  0.00000000E+00  0.00000000E+00  0.00000000E+00
  0.00000000E+00  0.00000000E+00  0.00000000E+00
  0.00000000E+00  0.00000000E+00  0.00000000E+00
  0.00000000E+00  0.00000000E+00  0.00000000E+00
  0.00000000E+00  0.00000000E+00  0.00000000E+00
  0.00000000E+00  0.00000000E+00  0.00000000E+00
  0.00000000E+00  0.00000000E+00  0.00000000E+00
