Poscar file generated with pyiron       
   1.00000000000000     
     8.4618949781461374    0.2430497739649062    0.3842022159910869
    -0.4254302365862243   13.9152894994390426    0.1641003579217741
    -0.2714427444574996   -0.1020864293320008    7.9922279787814263
   Cs   I    Pb
     4    12     4
Direct
  0.4863051356529132  0.1744979871381142  0.2703955559524420
  0.9688994758069452  0.3576049403352884  0.7851225689055079
  0.9721307752073698  0.6736741002599104  0.2858381445200061
  0.4834465619669694  0.8583912744538530  0.7689941958877601
  0.2372943327743392  0.1113853885871664  0.6752166264011066
  0.2176925783682752  0.4199685174967716  0.3799797255440928
  0.7216225553776305  0.1075504043632225  0.6806322971784714
  0.7334431760849148  0.4252558580068326  0.3738738382320614
  0.4779125721965344  0.3343760833446942  0.8812255029262098
  0.9761383995872390  0.1977486529851556  0.1741223566407163
  0.7286677027770972  0.6121429823088209  0.8738262403015614
  0.7256048213172146  0.9199640276463786  0.1814871804298169
  0.2121587866196944  0.6060304591988404  0.8798533694120577
  0.2420209500468054  0.9259636952310993  0.1746334933954833
  0.9871867881253316  0.8343632876484763  0.6742757228238710
  0.4656770690854152  0.6976255111351112  0.3809984297295367
  0.9824515861796785  0.0164943976851798  0.4375249912060968
  0.9818142856187115  0.0154850859317412  0.9376570959825588
  0.4722170971171350  0.5154889718343640  0.6176041917611413
  0.4724664340354260  0.5164627025239483  0.1174663284159517
 
  0.00000000E+00  0.00000000E+00  0.00000000E+00
  0.00000000E+00  0.00000000E+00  0.00000000E+00
  0.00000000E+00  0.00000000E+00  0.00000000E+00
  0.00000000E+00  0.00000000E+00  0.00000000E+00
  0.00000000E+00  0.00000000E+00  0.00000000E+00
  0.00000000E+00  0.00000000E+00  0.00000000E+00
  0.00000000E+00  0.00000000E+00  0.00000000E+00
  0.00000000E+00  0.00000000E+00  0.00000000E+00
  0.00000000E+00  0.00000000E+00  0.00000000E+00
  0.00000000E+00  0.00000000E+00  0.00000000E+00
  0.00000000E+00  0.00000000E+00  0.00000000E+00
  0.00000000E+00  0.00000000E+00  0.00000000E+00
  0.00000000E+00  0.00000000E+00  0.00000000E+00
  0.00000000E+00  0.00000000E+00  0.00000000E+00
  0.00000000E+00  0.00000000E+00  0.00000000E+00
  0.00000000E+00  0.00000000E+00  0.00000000E+00
  0.00000000E+00  0.00000000E+00  0.00000000E+00
  0.00000000E+00  0.00000000E+00  0.00000000E+00
  0.00000000E+00  0.00000000E+00  0.00000000E+00
  0.00000000E+00  0.00000000E+00  0.00000000E+00
