Poscar file generated with pyiron       
   1.00000000000000     
     8.2922820201692531    0.1686198689357090    1.1136039961477195
    -0.2422173947306603   14.5946893234529647   -0.2735637630608167
     0.1957203419444066    0.2490557707424313    7.8531389960079405
   Cs   I    Pb
     4    12     4
Direct
  0.4727235971272347  0.1848918782687945  0.2197960130482163
  0.9769488008004473  0.3689373949312646  0.7899736169751593
  0.9691926564791598  0.7044840005971134  0.2756737270487589
  0.4810597749191457  0.8487210809106291  0.7336481333209874
  0.2159279954995280  0.1359313114854724  0.6672497793147792
  0.2336508328519374  0.4179629498677223  0.3416718109323188
  0.6827320302156440  0.0933692046062932  0.7553007930602658
  0.7671450128096271  0.4605136042457738  0.2538476483869648
  0.4965919511992699  0.3506578042959773  0.8116688661020575
  0.9531950750290994  0.2030928115833551  0.1975121374161662
  0.7395323736566212  0.6207536385489593  0.7494858045265670
  0.7100501503595805  0.9331840698789312  0.2593266578218469
  0.2045352399910764  0.6069093748297255  0.8469475912222594
  0.2454795704719169  0.9470783067646752  0.1619655898824101
  0.0080252947786907  0.8533327986007483  0.6964900615695371
  0.4418485434201459  0.7003411692378048  0.3123508334234233
  0.9704059114792613  0.0301526217115051  0.4611643607700435
  0.9703023868297885  0.0268269779210189  0.9585194476088945
  0.4791810010004340  0.5234508379986224  0.5479810796560548
  0.4796798392280271  0.5270561716187151  0.0505360613283790
 
  0.00000000E+00  0.00000000E+00  0.00000000E+00
  0.00000000E+00  0.00000000E+00  0.00000000E+00
  0.00000000E+00  0.00000000E+00  0.00000000E+00
  0.00000000E+00  0.00000000E+00  0.00000000E+00
  0.00000000E+00  0.00000000E+00  0.00000000E+00
  0.00000000E+00  0.00000000E+00  0.00000000E+00
  0.00000000E+00  0.00000000E+00  0.00000000E+00
  0.00000000E+00  0.00000000E+00  0.00000000E+00
  0.00000000E+00  0.00000000E+00  0.00000000E+00
  0.00000000E+00  0.00000000E+00  0.00000000E+00
  0.00000000E+00  0.00000000E+00  0.00000000E+00
  0.00000000E+00  0.00000000E+00  0.00000000E+00
  0.00000000E+00  0.00000000E+00  0.00000000E+00
  0.00000000E+00  0.00000000E+00  0.00000000E+00
  0.00000000E+00  0.00000000E+00  0.00000000E+00
  0.00000000E+00  0.00000000E+00  0.00000000E+00
  0.00000000E+00  0.00000000E+00  0.00000000E+00
  0.00000000E+00  0.00000000E+00  0.00000000E+00
  0.00000000E+00  0.00000000E+00  0.00000000E+00
  0.00000000E+00  0.00000000E+00  0.00000000E+00
