Poscar file generated with pyiron       
   1.00000000000000     
     8.4585869999999996    0.1924010000000000    0.4558830000000000
    -0.3535910000000000   13.9181439999999998    0.0895920000000000
    -0.3552810000000000   -0.0608360000000000    7.9967889999999997
   Cs   I    Pb
     4    12     4
Direct
  0.4819904275232503  0.1758418132705799  0.2712902072865688
  0.9640881353475237  0.3590623607945247  0.7853936623235640
  0.9702316908723887  0.6750361456894467  0.2872840656911748
  0.4768521807552659  0.8592002378028738  0.7705202201129993
  0.2313223249091365  0.1137095288089469  0.6754161839567629
  0.2141010299962147  0.4207365195305712  0.3808994340822096
  0.7157649136135262  0.1075923819021298  0.6810837139832273
  0.7297830292706493  0.4275636821675022  0.3755068756306557
  0.4749681451941683  0.3357925560175872  0.8819211094217962
  0.9681689776796247  0.1990493280920518  0.1747042501221259
  0.7242274882563322  0.6139784568768789  0.8764408604900993
  0.7221120033552353  0.9198931566509430  0.1806083452858260
  0.2079163989686919  0.6068476042847877  0.8805466989251656
  0.2379938847777510  0.9286298034769374  0.1759122454029551
  0.9834736685970213  0.8358340432728113  0.6746808407621288
  0.4605926830659683  0.6989944802735053  0.3821177650213983
  0.9770457687525607  0.0177656256317604  0.4377046572326790
  0.9767959985954491  0.0170161641289255  0.9378643516920917
  0.4681316641125122  0.5169843784465300  0.6191012423480302
  0.4685289742755288  0.5178614199428324  0.1190203578981013
 
  0.00000000E+00  0.00000000E+00  0.00000000E+00
  0.00000000E+00  0.00000000E+00  0.00000000E+00
  0.00000000E+00  0.00000000E+00  0.00000000E+00
  0.00000000E+00  0.00000000E+00  0.00000000E+00
  0.00000000E+00  0.00000000E+00  0.00000000E+00
  0.00000000E+00  0.00000000E+00  0.00000000E+00
  0.00000000E+00  0.00000000E+00  0.00000000E+00
  0.00000000E+00  0.00000000E+00  0.00000000E+00
  0.00000000E+00  0.00000000E+00  0.00000000E+00
  0.00000000E+00  0.00000000E+00  0.00000000E+00
  0.00000000E+00  0.00000000E+00  0.00000000E+00
  0.00000000E+00  0.00000000E+00  0.00000000E+00
  0.00000000E+00  0.00000000E+00  0.00000000E+00
  0.00000000E+00  0.00000000E+00  0.00000000E+00
  0.00000000E+00  0.00000000E+00  0.00000000E+00
  0.00000000E+00  0.00000000E+00  0.00000000E+00
  0.00000000E+00  0.00000000E+00  0.00000000E+00
  0.00000000E+00  0.00000000E+00  0.00000000E+00
  0.00000000E+00  0.00000000E+00  0.00000000E+00
  0.00000000E+00  0.00000000E+00  0.00000000E+00
