Poscar file generated with pyiron       
   1.00000000000000     
     8.4562056098913043   -0.1731314752920562    0.5016178844713708
     0.2705536943502444   13.8784789510265423    0.2371582492595142
    -0.3975400176201343   -0.1278334522220011    8.0063097658578606
   Cs   I    Pb
     4    12     4
Direct
  0.4888062968514946  0.1674568673390351  0.2543740375308327
  0.9744657676267238  0.3537441746844922  0.7715030416263395
  0.9725797762627353  0.6674437441968635  0.2723716093053860
  0.4880562203254807  0.8537730506558451  0.7549933247353278
  0.2423327637195507  0.1045064443022849  0.6570395642023282
  0.2177574902075394  0.4184422428128232  0.3676294055924806
  0.7271305797805083  0.1045296539316107  0.6642940652575960
  0.7325714312224411  0.4156999484839484  0.3644774388480173
  0.4735403696909808  0.3289232914421052  0.8692386599047787
  0.9841156083838429  0.1928141902884001  0.1573420916269986
  0.7346207100133409  0.6040033650570299  0.8623259518364296
  0.7285742380091302  0.9159681338833111  0.1624010944617247
  0.2195403790818625  0.6049956739885131  0.8696223865435198
  0.2434498891860843  0.9181879378014528  0.1589358233673327
  0.9866337260164153  0.8289031541622711  0.6573452321343229
  0.4777926928174492  0.6928021603430649  0.3690888260042722
  0.9853310262039058  0.0112115649753358  0.4202749448766762
  0.9863645193486947  0.0104376981653427  0.9202865252621690
  0.4751379258752814  0.5105298223408694  0.6063479811500823
  0.4760598598988566  0.5111843094184095  0.1063134873584717
 
  0.00000000E+00  0.00000000E+00  0.00000000E+00
  0.00000000E+00  0.00000000E+00  0.00000000E+00
  0.00000000E+00  0.00000000E+00  0.00000000E+00
  0.00000000E+00  0.00000000E+00  0.00000000E+00
  0.00000000E+00  0.00000000E+00  0.00000000E+00
  0.00000000E+00  0.00000000E+00  0.00000000E+00
  0.00000000E+00  0.00000000E+00  0.00000000E+00
  0.00000000E+00  0.00000000E+00  0.00000000E+00
  0.00000000E+00  0.00000000E+00  0.00000000E+00
  0.00000000E+00  0.00000000E+00  0.00000000E+00
  0.00000000E+00  0.00000000E+00  0.00000000E+00
  0.00000000E+00  0.00000000E+00  0.00000000E+00
  0.00000000E+00  0.00000000E+00  0.00000000E+00
  0.00000000E+00  0.00000000E+00  0.00000000E+00
  0.00000000E+00  0.00000000E+00  0.00000000E+00
  0.00000000E+00  0.00000000E+00  0.00000000E+00
  0.00000000E+00  0.00000000E+00  0.00000000E+00
  0.00000000E+00  0.00000000E+00  0.00000000E+00
  0.00000000E+00  0.00000000E+00  0.00000000E+00
  0.00000000E+00  0.00000000E+00  0.00000000E+00
