Poscar file generated with pyiron       
   1.00000000000000     
     8.4609702389752286    0.2390653755192071    0.2789933315300006
    -0.4142723777134146   13.9089991479325654   -0.1037302636040452
    -0.1835087878496597    0.0562619620034871    8.0008480503117951
   Cs   I    Pb
     4    12     4
Direct
  0.4893225174928286  0.1766201706992999  0.2592916731728390
  0.9709549777264170  0.3601573980378660  0.7736696330861341
  0.9758308971363659  0.6760617402963630  0.2752563151101686
  0.4843941521385431  0.8607406786960515  0.7580574688983488
  0.2381073998943954  0.1159608025408260  0.6641163802921668
  0.2224278061064082  0.4206663314741331  0.3688946917785293
  0.7225896779335943  0.1077835139801231  0.6692605338637148
  0.7378783191119220  0.4288063844750964  0.3640703291499973
  0.4854938036886973  0.3366748955720385  0.8701263224853507
  0.9750867580980969  0.1999771982512094  0.1629685015911467
  0.7306807990636486  0.6159932090433732  0.8631615320928266
  0.7299396831722796  0.9205830185165192  0.1697073621563826
  0.2140274515794073  0.6065156504112790  0.8697321010362323
  0.2465349422379149  0.9301633459822209  0.1635072844743244
  0.9949477754971477  0.8367508447052570  0.6629393803531626
  0.4658073719495743  0.6999072658225484  0.3701275742939769
  0.9852564110630655  0.0189360554890036  0.4259212962088854
  0.9845022323661573  0.0179792180904322  0.9260653110916020
  0.4752166085953148  0.5177569401409364  0.6071557297991080
  0.4761862922827662  0.5186865941429138  0.1070242479312786
 
  0.00000000E+00  0.00000000E+00  0.00000000E+00
  0.00000000E+00  0.00000000E+00  0.00000000E+00
  0.00000000E+00  0.00000000E+00  0.00000000E+00
  0.00000000E+00  0.00000000E+00  0.00000000E+00
  0.00000000E+00  0.00000000E+00  0.00000000E+00
  0.00000000E+00  0.00000000E+00  0.00000000E+00
  0.00000000E+00  0.00000000E+00  0.00000000E+00
  0.00000000E+00  0.00000000E+00  0.00000000E+00
  0.00000000E+00  0.00000000E+00  0.00000000E+00
  0.00000000E+00  0.00000000E+00  0.00000000E+00
  0.00000000E+00  0.00000000E+00  0.00000000E+00
  0.00000000E+00  0.00000000E+00  0.00000000E+00
  0.00000000E+00  0.00000000E+00  0.00000000E+00
  0.00000000E+00  0.00000000E+00  0.00000000E+00
  0.00000000E+00  0.00000000E+00  0.00000000E+00
  0.00000000E+00  0.00000000E+00  0.00000000E+00
  0.00000000E+00  0.00000000E+00  0.00000000E+00
  0.00000000E+00  0.00000000E+00  0.00000000E+00
  0.00000000E+00  0.00000000E+00  0.00000000E+00
  0.00000000E+00  0.00000000E+00  0.00000000E+00
