Poscar file generated with pyiron       
   1.00000000000000     
     8.8640914797144763    0.4036339947778008   -0.1750763562363163
    -0.0547372458764669    8.8399559254848175    0.4566547062235398
     0.2750590703243316   -0.6483218515690492   12.2313682160612593
   Cs   I    Pb
     4    12     4
Direct
  0.0908030849528500  0.3696105217881835  0.1995802044805874
  0.0672211702898239  0.4049033930197229  0.6992507635490052
  0.5922619542011606  0.8809328527679152  0.7462204124244685
  0.5664716576998089  0.8935875206369600  0.2456378269969891
  0.3115363653728022  0.1440275302368164  0.4543050640140421
  0.8024958520182430  0.6533490634700696  0.4938521981962060
  0.8091818038073337  0.1341649560023096  0.5415933466598192
  0.3007232307621331  0.6253937726228717  0.4062597755711334
  0.8453063959011490  0.6322380019644684  0.9546683088946677
  0.3574609547024140  0.1197323242806377  0.9942897177400095
  0.3478851301496529  0.6391076811013877  0.0418332696463033
  0.8594216367962141  0.1503663775758247  0.9066977000203058
  0.1638518490312010  0.8363305101303786  0.7202526693510688
 -0.0052250213203355  0.9382974642561587  0.2203287914366194
  0.6626608522183315  0.3341271048300358  0.2276342315183100
  0.4957825051444059  0.4407773228847231  0.7278263071207173
  0.0676182095878835  0.8912349826646377  0.4718771205569612
  0.5672837675210649  0.3915471250549699  0.4757993712813635
  0.0914638003254361  0.8832290366451192  0.9719082074367926
  0.5912544914208949  0.3828997839608816 -0.0243190840749748
 
  0.00000000E+00  0.00000000E+00  0.00000000E+00
  0.00000000E+00  0.00000000E+00  0.00000000E+00
  0.00000000E+00  0.00000000E+00  0.00000000E+00
  0.00000000E+00  0.00000000E+00  0.00000000E+00
  0.00000000E+00  0.00000000E+00  0.00000000E+00
  0.00000000E+00  0.00000000E+00  0.00000000E+00
  0.00000000E+00  0.00000000E+00  0.00000000E+00
  0.00000000E+00  0.00000000E+00  0.00000000E+00
  0.00000000E+00  0.00000000E+00  0.00000000E+00
  0.00000000E+00  0.00000000E+00  0.00000000E+00
  0.00000000E+00  0.00000000E+00  0.00000000E+00
  0.00000000E+00  0.00000000E+00  0.00000000E+00
  0.00000000E+00  0.00000000E+00  0.00000000E+00
  0.00000000E+00  0.00000000E+00  0.00000000E+00
  0.00000000E+00  0.00000000E+00  0.00000000E+00
  0.00000000E+00  0.00000000E+00  0.00000000E+00
  0.00000000E+00  0.00000000E+00  0.00000000E+00
  0.00000000E+00  0.00000000E+00  0.00000000E+00
  0.00000000E+00  0.00000000E+00  0.00000000E+00
  0.00000000E+00  0.00000000E+00  0.00000000E+00
