Poscar file generated with pyiron       
   1.00000000000000     
     8.8632431940098222    0.3565334987174154   -0.1432394499465413
    -0.0113058510880114    8.8381809427223796    0.4879464987111951
     0.2366292246149614   -0.6799000387810653   12.2162575833980327
   Cs   I    Pb
     4    12     4
Direct
  0.0877271707783231  0.3697317666232482  0.2074910069875717
  0.0614697760383416  0.3868282914376739  0.7068689247999675
  0.5869719102294004  0.8617316234038164  0.7588155202070794
  0.5634073453621992  0.8944807837284817  0.2582659891055604
  0.2961110874278226  0.1447025737848615  0.4613059413196781
  0.8043637527161155  0.6362764411627222  0.5017643510053719
  0.7944038570464304  0.1162991986391489  0.5498047760787907
  0.3020436647615943  0.6236165852798762  0.4138190791182363
  0.8524862718848119  0.6124203484581766  0.9617108088700711
  0.3462830522964520  0.1186792499501651  0.0021594278226945
  0.3546936618647702  0.6393575277879007  0.0500346082916566
  0.8486061212194294  0.1330735360568934  0.9137486753270037
  0.1590173003285291  0.8250830942771145  0.7277544601389422
 -0.0087865234893362  0.9313509087116711  0.2279151062828379
  0.6596482512940094  0.3261511759089908  0.2358981871457157
  0.4898411522235530  0.4297128397469701  0.7360681179102621
  0.0616280586001940  0.8824253559061680  0.4800321856307840
  0.5615454396076196  0.3821725612048097  0.4839920208960741
  0.0882674383544177  0.8735559708800709 -0.0199740156587104
  0.5880241158188680  0.3736878437952372 -0.0160344684083012
 
  0.00000000E+00  0.00000000E+00  0.00000000E+00
  0.00000000E+00  0.00000000E+00  0.00000000E+00
  0.00000000E+00  0.00000000E+00  0.00000000E+00
  0.00000000E+00  0.00000000E+00  0.00000000E+00
  0.00000000E+00  0.00000000E+00  0.00000000E+00
  0.00000000E+00  0.00000000E+00  0.00000000E+00
  0.00000000E+00  0.00000000E+00  0.00000000E+00
  0.00000000E+00  0.00000000E+00  0.00000000E+00
  0.00000000E+00  0.00000000E+00  0.00000000E+00
  0.00000000E+00  0.00000000E+00  0.00000000E+00
  0.00000000E+00  0.00000000E+00  0.00000000E+00
  0.00000000E+00  0.00000000E+00  0.00000000E+00
  0.00000000E+00  0.00000000E+00  0.00000000E+00
  0.00000000E+00  0.00000000E+00  0.00000000E+00
  0.00000000E+00  0.00000000E+00  0.00000000E+00
  0.00000000E+00  0.00000000E+00  0.00000000E+00
  0.00000000E+00  0.00000000E+00  0.00000000E+00
  0.00000000E+00  0.00000000E+00  0.00000000E+00
  0.00000000E+00  0.00000000E+00  0.00000000E+00
  0.00000000E+00  0.00000000E+00  0.00000000E+00
