Poscar file generated with pyiron       
   1.00000000000000     
     8.4075752712432514    0.1413228515453895   -0.2979589981783467
    -0.1351974049241312    8.9853185783432199    0.5219625247636572
     0.4531003699610101   -0.7116996895586153   12.4564284840932675
   Cs   I    Pb
     4    12     4
Direct
  0.1022906497747342  0.4501093996161670  0.2334699881682688
  0.0414236271157480  0.2867743959315053  0.7337711814477695
  0.6016831133856518  0.7867233511436330  0.7328812215121545
  0.5419789264948682  0.9503555067144625  0.2328180918074303
  0.2573407659424373  0.1756799618904327  0.4433339290382588
  0.8879542068764920  0.5608519454174560  0.5232723429831423
  0.7573370611214676  0.0609071520164710  0.5221599592636388
  0.3882301058926398  0.6760526083154009  0.4441137430829286
  0.8858810992447399  0.5613717221031417  0.9430823800561746
  0.2559502974699676  0.1754682534258250  0.0235276599900959
  0.3861855998996113  0.6754543222667141  0.0225216463984825
  0.7559495190501951  0.0608269590299359  0.9440346516490777
  0.1538228183952468  0.8730028759242714  0.7334923658710945
  0.9897709972466947  0.8638890220141352  0.2335457357855630
  0.6537844127282381  0.3661324283318610  0.2332141983838593
  0.4901961828298281  0.3706086021611570  0.7332992131399370
  0.0728920520614950  0.8683343280116044  0.4834654982034765
  0.5727174804360808  0.3682454967527813  0.4833447431549747
  0.0710286291829398  0.8681506253833541 -0.0164715077018397
  0.5710714174757937  0.3682081160239350  0.9833626836560619
 
  0.00000000E+00  0.00000000E+00  0.00000000E+00
  0.00000000E+00  0.00000000E+00  0.00000000E+00
  0.00000000E+00  0.00000000E+00  0.00000000E+00
  0.00000000E+00  0.00000000E+00  0.00000000E+00
  0.00000000E+00  0.00000000E+00  0.00000000E+00
  0.00000000E+00  0.00000000E+00  0.00000000E+00
  0.00000000E+00  0.00000000E+00  0.00000000E+00
  0.00000000E+00  0.00000000E+00  0.00000000E+00
  0.00000000E+00  0.00000000E+00  0.00000000E+00
  0.00000000E+00  0.00000000E+00  0.00000000E+00
  0.00000000E+00  0.00000000E+00  0.00000000E+00
  0.00000000E+00  0.00000000E+00  0.00000000E+00
  0.00000000E+00  0.00000000E+00  0.00000000E+00
  0.00000000E+00  0.00000000E+00  0.00000000E+00
  0.00000000E+00  0.00000000E+00  0.00000000E+00
  0.00000000E+00  0.00000000E+00  0.00000000E+00
  0.00000000E+00  0.00000000E+00  0.00000000E+00
  0.00000000E+00  0.00000000E+00  0.00000000E+00
  0.00000000E+00  0.00000000E+00  0.00000000E+00
  0.00000000E+00  0.00000000E+00  0.00000000E+00
