Poscar file generated with pyiron       
   1.00000000000000     
     8.4205210262266714    0.0338771634107620   -0.3111094069785499
    -0.0298376981236448    8.9776553311619889    0.4885733122407996
     0.4688015601599989   -0.6730093967510159   12.4512369118844077
   Cs   I    Pb
     4    12     4
Direct
  0.1208880477721270  0.3172582054360208  0.2166731997194293
  0.0634596135947790  0.4802637194668814  0.7166682475814462
  0.6220931663309521  0.9800871118030735  0.7172114926919062
  0.5622542240201486  0.8182305189438204  0.2167700001408814
  0.4058958352425873  0.0919956184738661  0.4266816042311040
  0.7769861431264604  0.7060467547340373  0.5070804422477291
  0.9055971419161407  0.2056676567162803  0.5062057147225868
  0.2770522037536401  0.5918046262273839  0.4275219189159768
  0.7782222570222691  0.7058762856583977  0.9266392623779702
  0.4069265493219046  0.0920683101930913  0.0070372693820240
  0.2777718202646750  0.5918255298953324  0.0060057712699460
  0.9069840189661580  0.2063781727386087  0.9281107255864656
  0.1735617005594868  0.8975732977858146  0.7165751040316789
  0.0103134326649212  0.9005956135193025  0.2165518226528214
  0.6742139221334519  0.4036465828408353  0.2168972726332673
  0.5107675713363704  0.3943615212491395  0.7168762915804718
  0.0913044708375580  0.8988758440895032  0.4665483610997316
  0.5914922384705216  0.3988986858457129  0.4666896981055212
  0.0926107410262393  0.8991703218099848  0.9665706448350934
  0.5923548590868954  0.3992943231763558  0.9668801561945716
 
  0.00000000E+00  0.00000000E+00  0.00000000E+00
  0.00000000E+00  0.00000000E+00  0.00000000E+00
  0.00000000E+00  0.00000000E+00  0.00000000E+00
  0.00000000E+00  0.00000000E+00  0.00000000E+00
  0.00000000E+00  0.00000000E+00  0.00000000E+00
  0.00000000E+00  0.00000000E+00  0.00000000E+00
  0.00000000E+00  0.00000000E+00  0.00000000E+00
  0.00000000E+00  0.00000000E+00  0.00000000E+00
  0.00000000E+00  0.00000000E+00  0.00000000E+00
  0.00000000E+00  0.00000000E+00  0.00000000E+00
  0.00000000E+00  0.00000000E+00  0.00000000E+00
  0.00000000E+00  0.00000000E+00  0.00000000E+00
  0.00000000E+00  0.00000000E+00  0.00000000E+00
  0.00000000E+00  0.00000000E+00  0.00000000E+00
  0.00000000E+00  0.00000000E+00  0.00000000E+00
  0.00000000E+00  0.00000000E+00  0.00000000E+00
  0.00000000E+00  0.00000000E+00  0.00000000E+00
  0.00000000E+00  0.00000000E+00  0.00000000E+00
  0.00000000E+00  0.00000000E+00  0.00000000E+00
  0.00000000E+00  0.00000000E+00  0.00000000E+00
