Poscar file generated with pyiron       
   1.00000000000000     
     8.9698273276548974    0.0874552474650671   -0.2252968367656894
     0.1033753636466186    8.7156301418841107    0.5991172431131148
     0.2982645853990049   -0.7642668191270060   12.2493211155557518
   Cs   I    Pb
     4    12     4
Direct
  0.0621358652743156  0.3801005017531208  0.1853599545482554
  0.0390112391023838  0.4016610939918089  0.6864552539148784
  0.5603412408441824  0.8816187876406124  0.7234978400238544
  0.5384934385352169  0.8934818884659083  0.2242756117762587
  0.2848817474976719  0.1433839195676483  0.4172545114404784
  0.7759918719029388  0.6520675511061307  0.4909940040547880
  0.7866500189708699  0.1361835877312599  0.5160141477874890
  0.2780867848226934  0.6286630401557846  0.3959931608845786
  0.8193056084383171  0.6290326604182118  0.9190942052965612
  0.3177699116022464  0.1301085624621119 -0.0075332472274015
  0.3209377269615119  0.6447962133883223  0.0139364849553148
  0.8186886566339092  0.1438349203814869  0.8935762145677804
  0.1392937204130915  0.8596148608198435  0.7010360633672231
  0.9601236854368088  0.9135285583187407  0.2006118044319593
  0.6413026481149099  0.3577231338225128  0.2093278298360126
  0.4612732363617132  0.4114695616731750  0.7088965186805263
  0.0406658904512395  0.8903461447895673  0.4518705876430457
  0.5411818098701965  0.3893774352801990  0.4577645211429027
  0.0597132030992941  0.8867257600705960  0.9520844481855909
  0.5603796713681242  0.3855320776090638  0.9582668394533517
 
  0.00000000E+00  0.00000000E+00  0.00000000E+00
  0.00000000E+00  0.00000000E+00  0.00000000E+00
  0.00000000E+00  0.00000000E+00  0.00000000E+00
  0.00000000E+00  0.00000000E+00  0.00000000E+00
  0.00000000E+00  0.00000000E+00  0.00000000E+00
  0.00000000E+00  0.00000000E+00  0.00000000E+00
  0.00000000E+00  0.00000000E+00  0.00000000E+00
  0.00000000E+00  0.00000000E+00  0.00000000E+00
  0.00000000E+00  0.00000000E+00  0.00000000E+00
  0.00000000E+00  0.00000000E+00  0.00000000E+00
  0.00000000E+00  0.00000000E+00  0.00000000E+00
  0.00000000E+00  0.00000000E+00  0.00000000E+00
  0.00000000E+00  0.00000000E+00  0.00000000E+00
  0.00000000E+00  0.00000000E+00  0.00000000E+00
  0.00000000E+00  0.00000000E+00  0.00000000E+00
  0.00000000E+00  0.00000000E+00  0.00000000E+00
  0.00000000E+00  0.00000000E+00  0.00000000E+00
  0.00000000E+00  0.00000000E+00  0.00000000E+00
  0.00000000E+00  0.00000000E+00  0.00000000E+00
  0.00000000E+00  0.00000000E+00  0.00000000E+00
