Poscar file generated with pyiron       
   1.00000000000000     
     8.4303146711282935    0.1274870306584425   -0.1084287995533547
    -0.1584102976293025    8.9896393990749051    0.5301079279119134
     0.1844614778988209   -0.7305435900734623   12.4533680828845981
   Cs   I    Pb
     4    12     4
Direct
  0.0930041056892707  0.4605106806006238  0.2198790060638622
  0.0327141732718068  0.2987733251418934  0.7202655357476815
  0.5917148197179888  0.7974057175316325  0.7185714508250134
  0.5335053955244692  0.9588991269929710  0.2177339269819208
  0.2508212006722991  0.1847095406548382  0.4270443448715966
  0.8786001907145166  0.5723502319967386  0.5101905449719198
  0.7498491664888401  0.0722234914210738  0.5074827137134754
  0.3790664175733238  0.6860128946875520  0.4309782191908702
  0.8744203852547463  0.5730165602814715  0.9282531084546477
  0.2468968532478635  0.1848380423288412  0.0107931313590738
  0.3747056640205242  0.6841996620199458  0.0070099067183025
  0.7473157340218884  0.0715600295104191  0.9305044873279487
  0.1460940476426388  0.8872699776857145  0.7190664647289644
  0.9795643618601299 -0.1284839117921028  0.2192205764195344
  0.6454813294156826  0.3775816656150188  0.2185861986658579
  0.4808665688432532  0.3786575103438247  0.7188231276134597
  0.0643054194840442  0.8791118913606858  0.4693152352802736
  0.5644086822427093  0.3785682347926613  0.4685550058073771
  0.0613028214078535  0.8783517110862038  0.9691746705723068
  0.5609700798118836  0.3778540344796835  0.9687816582207406
 
  0.00000000E+00  0.00000000E+00  0.00000000E+00
  0.00000000E+00  0.00000000E+00  0.00000000E+00
  0.00000000E+00  0.00000000E+00  0.00000000E+00
  0.00000000E+00  0.00000000E+00  0.00000000E+00
  0.00000000E+00  0.00000000E+00  0.00000000E+00
  0.00000000E+00  0.00000000E+00  0.00000000E+00
  0.00000000E+00  0.00000000E+00  0.00000000E+00
  0.00000000E+00  0.00000000E+00  0.00000000E+00
  0.00000000E+00  0.00000000E+00  0.00000000E+00
  0.00000000E+00  0.00000000E+00  0.00000000E+00
  0.00000000E+00  0.00000000E+00  0.00000000E+00
  0.00000000E+00  0.00000000E+00  0.00000000E+00
  0.00000000E+00  0.00000000E+00  0.00000000E+00
  0.00000000E+00  0.00000000E+00  0.00000000E+00
  0.00000000E+00  0.00000000E+00  0.00000000E+00
  0.00000000E+00  0.00000000E+00  0.00000000E+00
  0.00000000E+00  0.00000000E+00  0.00000000E+00
  0.00000000E+00  0.00000000E+00  0.00000000E+00
  0.00000000E+00  0.00000000E+00  0.00000000E+00
  0.00000000E+00  0.00000000E+00  0.00000000E+00
