Poscar file generated with pyiron       
   1.00000000000000     
     8.9108609316161083    0.3866887006765913   -0.4138726684856857
    -0.0889881495207767    8.7759367479718957    0.4706889724374094
     0.5951884204851743   -0.6499458711611680   12.2458026911512867
   Cs   I    Pb
     4    12     4
Direct
  0.1072032704480319  0.3815046803032461  0.2156085545815176
  0.0865396298665989  0.3664478999848607  0.7153560567043090
  0.6099866984431793  0.8465952958368532  0.7485162389368152
  0.5846888494802018  0.8991265541267038  0.2492473341832945
  0.3172735353340323  0.1455845812764583  0.4533926432506352
  0.8441114648623721  0.6177782660551897  0.5083118360323989
  0.8184613693608658  0.1056164054000857  0.5445204155217609
  0.3426011916546983  0.6300740401696185  0.4165040290464958
  0.8762453972485604  0.6011128828762589  0.9536576147460358
  0.3486125831935391  0.1297557565617770  0.0093089670970162
  0.3771869832131470  0.6414149965655033  0.0439351944120243
  0.8522295806270330  0.1159420643964193  0.9166061200579322
  0.1840216887854560  0.8319263191593953  0.7280520943012374
  0.0101075364433284  0.9117810314555284  0.2280969048750694
  0.6845192005896983  0.3325487791585442  0.2338712300180788
  0.5105054209225467  0.4126154276237320  0.7338240122538395
  0.0892147917939701  0.8758116102004555  0.4793143187319432
  0.5892014616972429  0.3753428412387314  0.4828231055380577
  0.1054939929696945  0.8702594463692267 -0.0206668604749553
  0.6052492316190878  0.3702843024041504  0.9829863379151151
 
  0.00000000E+00  0.00000000E+00  0.00000000E+00
  0.00000000E+00  0.00000000E+00  0.00000000E+00
  0.00000000E+00  0.00000000E+00  0.00000000E+00
  0.00000000E+00  0.00000000E+00  0.00000000E+00
  0.00000000E+00  0.00000000E+00  0.00000000E+00
  0.00000000E+00  0.00000000E+00  0.00000000E+00
  0.00000000E+00  0.00000000E+00  0.00000000E+00
  0.00000000E+00  0.00000000E+00  0.00000000E+00
  0.00000000E+00  0.00000000E+00  0.00000000E+00
  0.00000000E+00  0.00000000E+00  0.00000000E+00
  0.00000000E+00  0.00000000E+00  0.00000000E+00
  0.00000000E+00  0.00000000E+00  0.00000000E+00
  0.00000000E+00  0.00000000E+00  0.00000000E+00
  0.00000000E+00  0.00000000E+00  0.00000000E+00
  0.00000000E+00  0.00000000E+00  0.00000000E+00
  0.00000000E+00  0.00000000E+00  0.00000000E+00
  0.00000000E+00  0.00000000E+00  0.00000000E+00
  0.00000000E+00  0.00000000E+00  0.00000000E+00
  0.00000000E+00  0.00000000E+00  0.00000000E+00
  0.00000000E+00  0.00000000E+00  0.00000000E+00
