Poscar file generated with pyiron       
   1.00000000000000     
     8.4355241416721487   -0.1040238198546569   -0.1988201402583828
     0.1209325359097867    8.9903006475604990    0.2452840726903145
     0.2879008956500965   -0.3461641341636800   12.4738317078328915
   Cs   I    Pb
     4    12     4
Direct
  0.0919740522265757  0.2390566346274207  0.2232692223822942
  0.0327285056311964  0.3995929222962571  0.7229970335424425
  0.5912508582717116  0.9005932705638620  0.7233799872917811
  0.5332370033592043  0.7390271435844290  0.2238779452174049
  0.3757341099634866  0.0130268289988769  0.4340099909969614
  0.7475035225189375  0.6264339497385265  0.5128764603020691
  0.8758310815772575  0.1262083020808503  0.5130436792314487
  0.2473894321938867  0.5125020711256763  0.4338054992326795
  0.7489106619154137  0.6262420133768857  0.9333380278294222
  0.3769980362471577  0.0127586495176378  0.0131379063789596
  0.2489598495079710  0.5130387203416181  0.0134735329649236
  0.8766309173774761  0.1260262426584725  0.9331675073847502
  0.1444999773371281  0.8161440222010394  0.7233513822114489
 -0.0199652116224092  0.8235426971756447  0.2231836284042030
  0.6445871827972178  0.3224991565830577  0.2234228586261881
  0.4803785296448381  0.3170397636606710  0.7233129604889782
  0.0616058918658368  0.8196822862702583  0.4731933111479806
  0.5616104614804412  0.3197190371984379  0.4733615596844220
  0.0630823899393767  0.8195234362901072  0.9731755875134921
  0.5629801829813323  0.3197676376243743  0.9734120249404765
 
  0.00000000E+00  0.00000000E+00  0.00000000E+00
  0.00000000E+00  0.00000000E+00  0.00000000E+00
  0.00000000E+00  0.00000000E+00  0.00000000E+00
  0.00000000E+00  0.00000000E+00  0.00000000E+00
  0.00000000E+00  0.00000000E+00  0.00000000E+00
  0.00000000E+00  0.00000000E+00  0.00000000E+00
  0.00000000E+00  0.00000000E+00  0.00000000E+00
  0.00000000E+00  0.00000000E+00  0.00000000E+00
  0.00000000E+00  0.00000000E+00  0.00000000E+00
  0.00000000E+00  0.00000000E+00  0.00000000E+00
  0.00000000E+00  0.00000000E+00  0.00000000E+00
  0.00000000E+00  0.00000000E+00  0.00000000E+00
  0.00000000E+00  0.00000000E+00  0.00000000E+00
  0.00000000E+00  0.00000000E+00  0.00000000E+00
  0.00000000E+00  0.00000000E+00  0.00000000E+00
  0.00000000E+00  0.00000000E+00  0.00000000E+00
  0.00000000E+00  0.00000000E+00  0.00000000E+00
  0.00000000E+00  0.00000000E+00  0.00000000E+00
  0.00000000E+00  0.00000000E+00  0.00000000E+00
  0.00000000E+00  0.00000000E+00  0.00000000E+00
