Poscar file generated with pyiron       
   1.00000000000000     
     8.8831329475376410    0.4744467729052425   -0.1453550729234283
    -0.1526777013687540    8.7979526545183706    0.4953612953518511
     0.2119740757369060   -0.6377307979460513   12.2456529461373460
   Cs   I    Pb
     4    12     4
Direct
  0.1174443080033103  0.3324141688167893  0.2063599357820710
  0.0938404066121649  0.3817049110241643  0.7088031804751358
  0.6162334663705985  0.8615049879696692  0.7424162881473089
  0.5941600240540696  0.8522521529092199  0.2433257553907393
  0.3540862629520562  0.0996649625782615  0.4543821909832148
  0.8244757732807970  0.6299011094978230  0.5007500747962560
  0.8506357351122709  0.1134795224399286  0.5431997633381329
  0.3238346622580334  0.5874942599267795  0.4116274509249496
  0.8618789669748158  0.6096777037540588  0.9538186272970727
  0.3833438718839680  0.0875210582320667 -0.0000719534299032
  0.3643491449440889  0.6031031040695296  0.0431625631256469
  0.8831588349540344  0.1230299827101749  0.9111610957511549
  0.1908436243282958  0.8117540798034006  0.7241385574528170
  0.0197374402827871  0.9022368413751364  0.2236371389322560
  0.6900997141691299  0.3089687354518966  0.2300493657773413
  0.5215955311617916  0.4056919644680345  0.7296068133381935
  0.0969341198376921  0.8593412937331001  0.4747732447480011
  0.5969233254550270  0.3597629836029680  0.4783392177520504
  0.1143294086355109  0.8545029875122110  0.9749177860727217
  0.6144805964849526  0.3543355397854069 -0.0216604974389595
 
  0.00000000E+00  0.00000000E+00  0.00000000E+00
  0.00000000E+00  0.00000000E+00  0.00000000E+00
  0.00000000E+00  0.00000000E+00  0.00000000E+00
  0.00000000E+00  0.00000000E+00  0.00000000E+00
  0.00000000E+00  0.00000000E+00  0.00000000E+00
  0.00000000E+00  0.00000000E+00  0.00000000E+00
  0.00000000E+00  0.00000000E+00  0.00000000E+00
  0.00000000E+00  0.00000000E+00  0.00000000E+00
  0.00000000E+00  0.00000000E+00  0.00000000E+00
  0.00000000E+00  0.00000000E+00  0.00000000E+00
  0.00000000E+00  0.00000000E+00  0.00000000E+00
  0.00000000E+00  0.00000000E+00  0.00000000E+00
  0.00000000E+00  0.00000000E+00  0.00000000E+00
  0.00000000E+00  0.00000000E+00  0.00000000E+00
  0.00000000E+00  0.00000000E+00  0.00000000E+00
  0.00000000E+00  0.00000000E+00  0.00000000E+00
  0.00000000E+00  0.00000000E+00  0.00000000E+00
  0.00000000E+00  0.00000000E+00  0.00000000E+00
  0.00000000E+00  0.00000000E+00  0.00000000E+00
  0.00000000E+00  0.00000000E+00  0.00000000E+00
