Poscar file generated with pyiron       
   1.00000000000000     
     8.4186597998850043    0.0539599126814805   -0.1889591729108887
    -0.0429463960896265    8.9847793471310862    0.3958108462138930
     0.2774179587822430   -0.5474016048227287   12.4795238844417469
   Cs   I    Pb
     4    12     4
Direct
  0.1158562142543129  0.3205349341184268  0.2077548966599930
  0.0583841170385570  0.4841350541024944  0.7075562105319168
  0.6178481186474263  0.9840130531400831  0.7065253591512385
  0.5568300880491753  0.8203755962708570  0.2064765174474822
  0.4037485804290675  0.0946330717286652  0.4170019528051098
  0.7736292756932432  0.7094362586220764  0.4966422749897835
  0.9034547317402731  0.2100743728564983  0.4964337178342519
  0.2731992276983118  0.5951864452204189  0.4177273114644753
  0.7700754169210566  0.7094965520660709  0.9174445234689053
  0.4002572193181984  0.0946016577606707 -0.0034059502905268
  0.2708862598910471  0.5945334479491677 -0.0034683799148421
  0.9010782583718759  0.2094372358304501  0.9176640198347269
  0.1685963058661157  0.9005107936153478  0.7073449186095138
  0.0051385593345793  0.9042885756091396  0.2074822716072262
  0.6676469366508114  0.4047628120980732  0.2065416354624587
  0.5063075266956222  0.3988892962294525  0.7066417503962731
  0.0885240692472371  0.9026559441600666  0.4574234060030180
  0.5882745003914609  0.4024845129741489  0.4566990132969373
  0.0852362384475248  0.9016177504769356  0.9574650500294712
  0.5857447608021815  0.4013878754968469  0.9567382208577385
 
  0.00000000E+00  0.00000000E+00  0.00000000E+00
  0.00000000E+00  0.00000000E+00  0.00000000E+00
  0.00000000E+00  0.00000000E+00  0.00000000E+00
  0.00000000E+00  0.00000000E+00  0.00000000E+00
  0.00000000E+00  0.00000000E+00  0.00000000E+00
  0.00000000E+00  0.00000000E+00  0.00000000E+00
  0.00000000E+00  0.00000000E+00  0.00000000E+00
  0.00000000E+00  0.00000000E+00  0.00000000E+00
  0.00000000E+00  0.00000000E+00  0.00000000E+00
  0.00000000E+00  0.00000000E+00  0.00000000E+00
  0.00000000E+00  0.00000000E+00  0.00000000E+00
  0.00000000E+00  0.00000000E+00  0.00000000E+00
  0.00000000E+00  0.00000000E+00  0.00000000E+00
  0.00000000E+00  0.00000000E+00  0.00000000E+00
  0.00000000E+00  0.00000000E+00  0.00000000E+00
  0.00000000E+00  0.00000000E+00  0.00000000E+00
  0.00000000E+00  0.00000000E+00  0.00000000E+00
  0.00000000E+00  0.00000000E+00  0.00000000E+00
  0.00000000E+00  0.00000000E+00  0.00000000E+00
  0.00000000E+00  0.00000000E+00  0.00000000E+00
