Poscar file generated with pyiron       
   1.00000000000000     
     8.4411715254672544   -0.0514966102789848   -0.0762842742315697
     0.0502981853570597    8.9719828381024413    0.4880394552797797
     0.1098878440841465   -0.6695570205813354   12.4522704111751743
   Cs   I    Pb
     4    12     4
Direct
  0.1002259102108059  0.3032086848828416  0.2256852741057240
  0.0431555204668392  0.4638499930235019  0.7254182415722998
  0.6003373293188012  0.9634276211864305  0.7257840869657614
  0.5424636872841750  0.8035070460145612  0.2257422019045548
  0.3847316890630726  0.0775608537015898  0.4355204611554090
  0.7577825829130758  0.6900542416614197  0.5159067783692992
  0.8845727783241250  0.1901373410695726  0.5153644193998992
  0.2578524492290502  0.5773972027548832  0.4359866294848984
  0.7582195235093230  0.6902608256342893  0.9355092560182630
  0.3855724094252118  0.0768965106804393  0.0158278211226067
  0.2582522355865640  0.5767394942240665  0.0150902280773633
  0.8856458758913036  0.1898774771673357  0.9361844846253968
  0.1533338779434372  0.8806859485464710  0.7255048831536471
  0.9894515110123988  0.8866202132048515  0.2256986829247271
  0.6540503889791504  0.3879467601337617  0.2255898575900717
  0.4893667425316250  0.3796142119820788  0.7257775212929282
  0.0713341517190453  0.8836040130021268  0.4755585132333357
  0.5714915001798156  0.3837118560555846  0.4757116058964121
  0.0718709126818530  0.8832452232338265 -0.0243317693403730
  0.5720989620997180  0.3833307392040267  0.9757264411589051
 
  0.00000000E+00  0.00000000E+00  0.00000000E+00
  0.00000000E+00  0.00000000E+00  0.00000000E+00
  0.00000000E+00  0.00000000E+00  0.00000000E+00
  0.00000000E+00  0.00000000E+00  0.00000000E+00
  0.00000000E+00  0.00000000E+00  0.00000000E+00
  0.00000000E+00  0.00000000E+00  0.00000000E+00
  0.00000000E+00  0.00000000E+00  0.00000000E+00
  0.00000000E+00  0.00000000E+00  0.00000000E+00
  0.00000000E+00  0.00000000E+00  0.00000000E+00
  0.00000000E+00  0.00000000E+00  0.00000000E+00
  0.00000000E+00  0.00000000E+00  0.00000000E+00
  0.00000000E+00  0.00000000E+00  0.00000000E+00
  0.00000000E+00  0.00000000E+00  0.00000000E+00
  0.00000000E+00  0.00000000E+00  0.00000000E+00
  0.00000000E+00  0.00000000E+00  0.00000000E+00
  0.00000000E+00  0.00000000E+00  0.00000000E+00
  0.00000000E+00  0.00000000E+00  0.00000000E+00
  0.00000000E+00  0.00000000E+00  0.00000000E+00
  0.00000000E+00  0.00000000E+00  0.00000000E+00
  0.00000000E+00  0.00000000E+00  0.00000000E+00
