Poscar file generated with pyiron       
   1.00000000000000     
     8.4038871778101694    0.2482026948400987   -0.4628781628682055
    -0.2525138869498720    8.9855883842449469    0.3596995735282809
     0.6987049574046260   -0.4795285129453789   12.4503853870042089
   Cs   I    Pb
     4    12     4
Direct
  0.1212476246230680  0.4568529411913126  0.2313182085446107
  0.0615014753381254  0.2935750532238059  0.7313207976116352
  0.6211189244115116  0.7936326327597908  0.7310766412906992
  0.5612415305991106  0.9574110760923416  0.2310122975002606
  0.2764877979365603  0.1825467002019214  0.4415290326827234
  0.9065128965556846  0.5679046814802090  0.5208424195573235
  0.7763147235377729  0.0679726082476663  0.5206416818014920
  0.4066936578079250  0.6829936944566812  0.4416794664733059
  0.9061986917335020  0.5680351891934152  0.9415704801275799
  0.2761033979765255  0.1826138008358280  0.0208528105156869
  0.4061669940734113  0.6827041179306127  0.0207125787255767
  0.7758335230774449  0.0679281254166190  0.9417089387004842
  0.1726731612211251  0.8782542583349794  0.7312707327114358
  0.0097956515985886  0.8721267165512426  0.2312045208592009
  0.6726131715420524  0.3727512023017403  0.2311109674989452
  0.5101086196960667  0.3781336848644722  0.7310889458332477
  0.0912719287995245  0.8752007699315152  0.4812139428561806
  0.5913628848443706  0.3754377448920329  0.4810776048077703
  0.0909728645333673  0.8753419251475905  0.9811817372244656
  0.5910237136416577  0.3754555825467034 -0.0188495054469626
 
  0.00000000E+00  0.00000000E+00  0.00000000E+00
  0.00000000E+00  0.00000000E+00  0.00000000E+00
  0.00000000E+00  0.00000000E+00  0.00000000E+00
  0.00000000E+00  0.00000000E+00  0.00000000E+00
  0.00000000E+00  0.00000000E+00  0.00000000E+00
  0.00000000E+00  0.00000000E+00  0.00000000E+00
  0.00000000E+00  0.00000000E+00  0.00000000E+00
  0.00000000E+00  0.00000000E+00  0.00000000E+00
  0.00000000E+00  0.00000000E+00  0.00000000E+00
  0.00000000E+00  0.00000000E+00  0.00000000E+00
  0.00000000E+00  0.00000000E+00  0.00000000E+00
  0.00000000E+00  0.00000000E+00  0.00000000E+00
  0.00000000E+00  0.00000000E+00  0.00000000E+00
  0.00000000E+00  0.00000000E+00  0.00000000E+00
  0.00000000E+00  0.00000000E+00  0.00000000E+00
  0.00000000E+00  0.00000000E+00  0.00000000E+00
  0.00000000E+00  0.00000000E+00  0.00000000E+00
  0.00000000E+00  0.00000000E+00  0.00000000E+00
  0.00000000E+00  0.00000000E+00  0.00000000E+00
  0.00000000E+00  0.00000000E+00  0.00000000E+00
