Poscar file generated with pyiron       
   1.00000000000000     
     8.4431694671188957   -0.1253279438701187   -0.2105475777151125
     0.1453441350224804    8.9803882898412848    0.2396517838179329
     0.3026803477647561   -0.3418773103943673   12.4591204413848029
   Cs   I    Pb
     4    12     4
Direct
  0.0941188566474518  0.2452055108936186  0.2109764318108892
  0.0367246568949353  0.4043525808241218  0.7108963167888274
  0.5937542545435451  0.9052220842188542  0.7118301851002423
  0.5371866201118690  0.7452780231657432  0.2115540165581500
  0.3787039601901770  0.0188689513783660  0.4222678555447642
  0.7517914375226442  0.6321209133768733  0.5008175258665828
  0.8782885339939149  0.1308475619985255  0.5016226991113658
  0.2519345581110224  0.5183774080369746  0.4205661382422791
  0.7536518511925587  0.6306453199614330  0.9214533292502995
  0.3789746068755105  0.0193539528215429  0.0010649912821261
  0.2538673935457559  0.5192217566662304  0.0019088492729626
  0.8792064911736078  0.1305516431943588  0.9207835043225924
  0.1483419790127120  0.8193958087076085  0.7111591729075842
 -0.0169938762272408  0.8299318610448116  0.2112884698962084
  0.6479353400717536  0.3282163540552300  0.2113648534064223
  0.4833789656834044  0.3224611553737243  0.7112842882587257
  0.0656392993537428  0.8249561197830252  0.4613051530366922
  0.5654361050724712  0.3253540804510824  0.4612968041802190
  0.0666317216416636  0.8243801065850190  0.9612917777371216
  0.5665096329416682  0.3250002207881670  0.9612213960887136
 
  0.00000000E+00  0.00000000E+00  0.00000000E+00
  0.00000000E+00  0.00000000E+00  0.00000000E+00
  0.00000000E+00  0.00000000E+00  0.00000000E+00
  0.00000000E+00  0.00000000E+00  0.00000000E+00
  0.00000000E+00  0.00000000E+00  0.00000000E+00
  0.00000000E+00  0.00000000E+00  0.00000000E+00
  0.00000000E+00  0.00000000E+00  0.00000000E+00
  0.00000000E+00  0.00000000E+00  0.00000000E+00
  0.00000000E+00  0.00000000E+00  0.00000000E+00
  0.00000000E+00  0.00000000E+00  0.00000000E+00
  0.00000000E+00  0.00000000E+00  0.00000000E+00
  0.00000000E+00  0.00000000E+00  0.00000000E+00
  0.00000000E+00  0.00000000E+00  0.00000000E+00
  0.00000000E+00  0.00000000E+00  0.00000000E+00
  0.00000000E+00  0.00000000E+00  0.00000000E+00
  0.00000000E+00  0.00000000E+00  0.00000000E+00
  0.00000000E+00  0.00000000E+00  0.00000000E+00
  0.00000000E+00  0.00000000E+00  0.00000000E+00
  0.00000000E+00  0.00000000E+00  0.00000000E+00
  0.00000000E+00  0.00000000E+00  0.00000000E+00
