Poscar file generated with pyiron       
   1.00000000000000     
     8.4505352157323657   -0.1480238617200610   -0.2187653516385021
     0.1582751409764298    8.9852692555636224    0.2231512631404939
     0.3221723380866578   -0.3134828555894907   12.4589969749881035
   Cs   I    Pb
     4    12     4
Direct
  0.1081539040129596  0.3319958923428926  0.2302328733654785
  0.0523254802908749  0.4923186451035859  0.7295720324943776
  0.6093375752157120  0.9918030449975983  0.7294821589812793
  0.5526192746202560  0.8319824483017150  0.2294214097030919
  0.3940969936210359  0.1060027702073224  0.4396329594633385
  0.7678549405327412  0.7183304415508583  0.5198352515990918
  0.8940827079052286  0.2186001503113177  0.5193739958801089
  0.2679481014704292  0.6060464417590314  0.4400678162774326
  0.7672896567700495  0.7178257404255592  0.9393644314708244
  0.3932252485310871  0.1055533706037999  0.0197741454780319
  0.2672825141830232  0.6053739751164574  0.0196494118898631
  0.8935122161189634  0.2180081538903196  0.9396901695495762
  0.1629124920731210  0.9092774226703171  0.7296502839328329
  0.9990807588455723  0.9146484164288654  0.2297567695295341
  0.6623222238950109  0.4153305543527916  0.2294894941277134
  0.4980950900168243  0.4075255652233772  0.7295418926438942
  0.0809948783059408  0.9122241294856107  0.4797197201407154
  0.5808841711829529  0.4122065932421436  0.4795944956516471
  0.0803066413981548  0.9116868936966326  0.9796285430604383
  0.5802417715611218  0.4115378997692007  0.9794366166392084
 
  0.00000000E+00  0.00000000E+00  0.00000000E+00
  0.00000000E+00  0.00000000E+00  0.00000000E+00
  0.00000000E+00  0.00000000E+00  0.00000000E+00
  0.00000000E+00  0.00000000E+00  0.00000000E+00
  0.00000000E+00  0.00000000E+00  0.00000000E+00
  0.00000000E+00  0.00000000E+00  0.00000000E+00
  0.00000000E+00  0.00000000E+00  0.00000000E+00
  0.00000000E+00  0.00000000E+00  0.00000000E+00
  0.00000000E+00  0.00000000E+00  0.00000000E+00
  0.00000000E+00  0.00000000E+00  0.00000000E+00
  0.00000000E+00  0.00000000E+00  0.00000000E+00
  0.00000000E+00  0.00000000E+00  0.00000000E+00
  0.00000000E+00  0.00000000E+00  0.00000000E+00
  0.00000000E+00  0.00000000E+00  0.00000000E+00
  0.00000000E+00  0.00000000E+00  0.00000000E+00
  0.00000000E+00  0.00000000E+00  0.00000000E+00
  0.00000000E+00  0.00000000E+00  0.00000000E+00
  0.00000000E+00  0.00000000E+00  0.00000000E+00
  0.00000000E+00  0.00000000E+00  0.00000000E+00
  0.00000000E+00  0.00000000E+00  0.00000000E+00
