Poscar file generated with pyiron       
   1.00000000000000     
     8.3756697725073792    0.2218770317438621   -0.4116463683082890
    -0.2187388679846062    8.9993964889625264    0.4211973782375168
     0.6260772378274519   -0.5656702922997262   12.4758644867473247
   Cs   I    Pb
     4    12     4
Direct
  0.1225705274115600  0.4462741687931305  0.2323312772471172
  0.0593543407006396  0.2788171610853069  0.7322105385064346
  0.6222822398575919  0.7792148518578760  0.7318253473354686
  0.5594160752515079  0.9473150929003086  0.2319660234286104
  0.2746400679955492  0.1713198877717858  0.4429818833604195
  0.9094417368383371  0.5535292211151713  0.5209061839609765
  0.7741881378388792  0.0540491437704436  0.5208892126544623
  0.4092368783812366  0.6721492627893126  0.4431499360417048
  0.9072958539520767  0.5542138153105558  0.9425896409260200
  0.2732089397077068  0.1713733041954141  0.0213752705991535
  0.4076258476215048  0.6717703391349906  0.0215610129861088
  0.7734300236128022  0.0545160764484932  0.9426535492949449
  0.1717240552768941  0.8647806099522364  0.7322168000419050
  0.0096075002578674  0.8601620906800759  0.2321834719308163
  0.6717099538234071  0.3620343619003915  0.2318831888807163
  0.5097330587319691  0.3646813012791917  0.7318587987554726
  0.0915244889562900  0.8628792781009963  0.4821363227493852
  0.5917112489612107  0.3631695892979294  0.4819426746835211
  0.0902295328174774  0.8625861083012962 -0.0177731423761564
  0.5900672904212940  0.3629913438345076  0.9819106896294171
 
  0.00000000E+00  0.00000000E+00  0.00000000E+00
  0.00000000E+00  0.00000000E+00  0.00000000E+00
  0.00000000E+00  0.00000000E+00  0.00000000E+00
  0.00000000E+00  0.00000000E+00  0.00000000E+00
  0.00000000E+00  0.00000000E+00  0.00000000E+00
  0.00000000E+00  0.00000000E+00  0.00000000E+00
  0.00000000E+00  0.00000000E+00  0.00000000E+00
  0.00000000E+00  0.00000000E+00  0.00000000E+00
  0.00000000E+00  0.00000000E+00  0.00000000E+00
  0.00000000E+00  0.00000000E+00  0.00000000E+00
  0.00000000E+00  0.00000000E+00  0.00000000E+00
  0.00000000E+00  0.00000000E+00  0.00000000E+00
  0.00000000E+00  0.00000000E+00  0.00000000E+00
  0.00000000E+00  0.00000000E+00  0.00000000E+00
  0.00000000E+00  0.00000000E+00  0.00000000E+00
  0.00000000E+00  0.00000000E+00  0.00000000E+00
  0.00000000E+00  0.00000000E+00  0.00000000E+00
  0.00000000E+00  0.00000000E+00  0.00000000E+00
  0.00000000E+00  0.00000000E+00  0.00000000E+00
  0.00000000E+00  0.00000000E+00  0.00000000E+00
