Poscar file generated with pyiron       
   1.00000000000000     
     8.8409182819598211    0.3599925396910076   -0.3707056081648543
    -0.0187517242794528    8.8110230833007748    0.4627003167795895
     0.5576912269891700   -0.7179998828576576   12.2919948557055143
   Cs   I    Pb
     4    12     4
Direct
  0.0986875159206691  0.3887910643757720  0.2311475102208319
  0.0757842836287686  0.3507105977907221  0.7290207273607497
  0.5851206634390228  0.8421872896771403  0.7594091658873849
  0.5831211854161943  0.9010586652495374  0.2473413917299894
  0.2974735974638793  0.1529742060950365  0.4706770379286409
  0.8688783799005292  0.5807952319202927  0.4954232281707351
  0.7918661200910314  0.0771077379388773  0.5480033563754767
  0.3581216471251752  0.6423349402508877  0.4248853638809506
  0.8639444799013919  0.5971621221019502  0.9711209124849253
  0.3232919156911749  0.1387812147523929 -0.0006481567620960
  0.3653157629561207  0.6456892730127237  0.0516474555707400
  0.8290881545995070  0.1081463134305632  0.9219608694441167
  0.1573694359933670  0.8117527258080347  0.7356796771365107
  0.0134315774035826  0.9273255718254083  0.2360372628818875
  0.6654765618915758  0.3237569698469445  0.2366603977877981
  0.5085766070594088  0.4170470711240952  0.7373855131013808
  0.0821612152950028  0.8681613246000639  0.4865816679841800
  0.5840136796961488  0.3675224460346441  0.4875252514523452
  0.0899069686225990  0.8697451344067388 -0.0130060329715140
  0.5901016511996519  0.3704986836574899 -0.0125233962344093
 
  0.00000000E+00  0.00000000E+00  0.00000000E+00
  0.00000000E+00  0.00000000E+00  0.00000000E+00
  0.00000000E+00  0.00000000E+00  0.00000000E+00
  0.00000000E+00  0.00000000E+00  0.00000000E+00
  0.00000000E+00  0.00000000E+00  0.00000000E+00
  0.00000000E+00  0.00000000E+00  0.00000000E+00
  0.00000000E+00  0.00000000E+00  0.00000000E+00
  0.00000000E+00  0.00000000E+00  0.00000000E+00
  0.00000000E+00  0.00000000E+00  0.00000000E+00
  0.00000000E+00  0.00000000E+00  0.00000000E+00
  0.00000000E+00  0.00000000E+00  0.00000000E+00
  0.00000000E+00  0.00000000E+00  0.00000000E+00
  0.00000000E+00  0.00000000E+00  0.00000000E+00
  0.00000000E+00  0.00000000E+00  0.00000000E+00
  0.00000000E+00  0.00000000E+00  0.00000000E+00
  0.00000000E+00  0.00000000E+00  0.00000000E+00
  0.00000000E+00  0.00000000E+00  0.00000000E+00
  0.00000000E+00  0.00000000E+00  0.00000000E+00
  0.00000000E+00  0.00000000E+00  0.00000000E+00
  0.00000000E+00  0.00000000E+00  0.00000000E+00
