Poscar file generated with pyiron       
   1.00000000000000     
     8.4328335336220661   -0.1136044270878915   -0.2572022494467483
     0.1167761445518352    8.9903474963288357    0.2116873077082581
     0.3719462594231129   -0.2940631998756492   12.4658863851188642
   Cs   I    Pb
     4    12     4
Direct
  0.1038283764108450  0.3394109648596773  0.2345537432079332
  0.0450284289209319  0.5013497324279722  0.7348134884476649
  0.6041312690325706  0.0013257722772058  0.7345721834604274
  0.5452690802044721  0.8395232357976129  0.2347941265851753
  0.3883338686728084  0.1131070482160609  0.4449392330108538
  0.7598415287761487  0.7270656940362716  0.5248508268493870
  0.8877607173332145  0.2273650589347885  0.5246814145217005
  0.2599454831082629  0.6140683118553391  0.4454088365645051
  0.7602137176987261  0.7271339314760613  0.9444519621492780
  0.3885952917384847  0.1133604938834988  0.0250957028836399
  0.2607152048249130  0.6139503394791508  0.0243560150807079
  0.8884332361796110  0.2273483335544112  0.9454969003341985
  0.1571968294313074  0.9171832785774081  0.7346939861735102
  0.9930055585235997  0.9231918606492815  0.2346724803832272
  0.6569800862654489  0.4246220751565459  0.2346042702024254
  0.4907189158214984  0.4155318863164051  0.7345536154083646
  0.0742673067118442  0.9212066904301451  0.4848800112378930
  0.5736656015256411  0.4211738651518375  0.4847924680597343
  0.0744559924614348  0.9202344204146097  0.9846146475496441
  0.5743271207842738  0.4200945493378573  0.9846528495279925
 
  0.00000000E+00  0.00000000E+00  0.00000000E+00
  0.00000000E+00  0.00000000E+00  0.00000000E+00
  0.00000000E+00  0.00000000E+00  0.00000000E+00
  0.00000000E+00  0.00000000E+00  0.00000000E+00
  0.00000000E+00  0.00000000E+00  0.00000000E+00
  0.00000000E+00  0.00000000E+00  0.00000000E+00
  0.00000000E+00  0.00000000E+00  0.00000000E+00
  0.00000000E+00  0.00000000E+00  0.00000000E+00
  0.00000000E+00  0.00000000E+00  0.00000000E+00
  0.00000000E+00  0.00000000E+00  0.00000000E+00
  0.00000000E+00  0.00000000E+00  0.00000000E+00
  0.00000000E+00  0.00000000E+00  0.00000000E+00
  0.00000000E+00  0.00000000E+00  0.00000000E+00
  0.00000000E+00  0.00000000E+00  0.00000000E+00
  0.00000000E+00  0.00000000E+00  0.00000000E+00
  0.00000000E+00  0.00000000E+00  0.00000000E+00
  0.00000000E+00  0.00000000E+00  0.00000000E+00
  0.00000000E+00  0.00000000E+00  0.00000000E+00
  0.00000000E+00  0.00000000E+00  0.00000000E+00
  0.00000000E+00  0.00000000E+00  0.00000000E+00
