Poscar file generated with pyiron       
   1.00000000000000     
     8.4108235556981832    0.0700140929906769   -0.2409125269822928
    -0.0675815733024935    8.9918189709524938    0.5086107812469007
     0.3604226652132637   -0.6944684235523920   12.4731239832334584
   Cs   I    Pb
     4    12     4
Direct
  0.1225566435487639  0.3105235668161448  0.2054010384846879
  0.0610665203378524  0.4745020532062192  0.7055850918628794
  0.6224835834357012  0.9730056917811393  0.7041201864995275
  0.5613210180102292  0.8090646817101289  0.2042741307802434
  0.4099852226858665  0.0835220545405158  0.4153551681913053
  0.7784314599424722  0.6992135490483957  0.4942496818931899
  0.9093451299037026  0.1995690259254301  0.4942914556636568
  0.2781677221963793  0.5841947663246385  0.4161552451998574
  0.7743292804343525  0.6995285790293538  0.9154499036125833
  0.4056094952665685  0.0842526275172842  0.9949640231067346
  0.2747150813055730  0.5843536742883626 -0.0065101158145733
  0.9056313662460780  0.1994833165629963  0.9156234522675023
  0.1730408061955442  0.8900013537315623  0.7056443675685863
  0.0105200786027176  0.8944268655807213  0.2055798794998057
  0.6732430651709003  0.3950319793641123  0.2047138713906144
  0.5097266430941945  0.3875565575261880  0.7046904011953844
  0.0942581818376106  0.8921144609659373  0.4554625171169953
  0.5938208578538684  0.3919921112324777  0.4550339071528067
  0.0898445831074446  0.8921823524658364  0.9556900925469345
  0.5901875590769813  0.3914614647902278  0.9547502817694676
 
  0.00000000E+00  0.00000000E+00  0.00000000E+00
  0.00000000E+00  0.00000000E+00  0.00000000E+00
  0.00000000E+00  0.00000000E+00  0.00000000E+00
  0.00000000E+00  0.00000000E+00  0.00000000E+00
  0.00000000E+00  0.00000000E+00  0.00000000E+00
  0.00000000E+00  0.00000000E+00  0.00000000E+00
  0.00000000E+00  0.00000000E+00  0.00000000E+00
  0.00000000E+00  0.00000000E+00  0.00000000E+00
  0.00000000E+00  0.00000000E+00  0.00000000E+00
  0.00000000E+00  0.00000000E+00  0.00000000E+00
  0.00000000E+00  0.00000000E+00  0.00000000E+00
  0.00000000E+00  0.00000000E+00  0.00000000E+00
  0.00000000E+00  0.00000000E+00  0.00000000E+00
  0.00000000E+00  0.00000000E+00  0.00000000E+00
  0.00000000E+00  0.00000000E+00  0.00000000E+00
  0.00000000E+00  0.00000000E+00  0.00000000E+00
  0.00000000E+00  0.00000000E+00  0.00000000E+00
  0.00000000E+00  0.00000000E+00  0.00000000E+00
  0.00000000E+00  0.00000000E+00  0.00000000E+00
  0.00000000E+00  0.00000000E+00  0.00000000E+00
