Poscar file generated with pyiron       
   1.00000000000000     
     8.4150473789819777   -0.0075178051982661   -0.1835995781942900
     0.0138675544489207    8.9947441510826316    0.3043906177118200
     0.2751964399121429   -0.4245542588573524   12.4731472985016207
   Cs   I    Pb
     4    12     4
Direct
  0.1108340251438436  0.3400941227143355  0.2004164300277069
  0.0507773812774986  0.5037310217382481  0.7006046770140464
  0.6106126021839773  0.0033918709253637  0.6997566322070874
  0.5508719336179058  0.8398159123635057  0.1994188935507080
  0.3967263390115566  0.1144973763695302  0.4101993800959716
  0.7670200697853947  0.7287269374972533  0.4900029812745555
  0.8969089337250977  0.2294298203134868  0.4896952661882576
  0.2671046067126459  0.6148281243635376  0.4106598256057026
  0.7645736149592505  0.7291328697442734  0.9100830978738546
  0.3944794326873175  0.1147916192593325 -0.0098066066794996
  0.2644446790307472  0.6144707624843641 -0.0100876282851451
  0.8947134605346678  0.2289576491817197  0.9105544926576820
  0.1626624448585881  0.9192444014642505  0.7004305576813173
 -0.0011884666652038  0.9248637790768108  0.2004476321076981
  0.6625231417412771  0.4250542415338637  0.1998480689601790
  0.4987597766020500  0.4181044523037345  0.6999564231329868
  0.0817399348737660  0.9217951236365143  0.4504085324490922
  0.5818356963747819  0.4217441208135055  0.4499363394693534
  0.0795698543897125  0.9217985879230303  0.9503942055576307
  0.5796175114921835  0.4216628687514752  0.9499245168528807
 
  0.00000000E+00  0.00000000E+00  0.00000000E+00
  0.00000000E+00  0.00000000E+00  0.00000000E+00
  0.00000000E+00  0.00000000E+00  0.00000000E+00
  0.00000000E+00  0.00000000E+00  0.00000000E+00
  0.00000000E+00  0.00000000E+00  0.00000000E+00
  0.00000000E+00  0.00000000E+00  0.00000000E+00
  0.00000000E+00  0.00000000E+00  0.00000000E+00
  0.00000000E+00  0.00000000E+00  0.00000000E+00
  0.00000000E+00  0.00000000E+00  0.00000000E+00
  0.00000000E+00  0.00000000E+00  0.00000000E+00
  0.00000000E+00  0.00000000E+00  0.00000000E+00
  0.00000000E+00  0.00000000E+00  0.00000000E+00
  0.00000000E+00  0.00000000E+00  0.00000000E+00
  0.00000000E+00  0.00000000E+00  0.00000000E+00
  0.00000000E+00  0.00000000E+00  0.00000000E+00
  0.00000000E+00  0.00000000E+00  0.00000000E+00
  0.00000000E+00  0.00000000E+00  0.00000000E+00
  0.00000000E+00  0.00000000E+00  0.00000000E+00
  0.00000000E+00  0.00000000E+00  0.00000000E+00
  0.00000000E+00  0.00000000E+00  0.00000000E+00
