Poscar file generated with pyiron       
   1.00000000000000     
     8.4808023375938006   -0.0661023030972509   -0.2055317093803165
     0.0809548954507416    8.9551883563659853    0.5692747756706028
     0.2837416840919020   -0.7822244875886649   12.4491871397236604
   Cs   I    Pb
     4    12     4
Direct
  0.0747928834927009  0.4504583952996594  0.2058037443706748
  0.0228146207542482  0.2948419912563891  0.7058924913453647
  0.5755667843790236  0.7953836892647916  0.7055465909101110
  0.5226742085557754  0.9498755375508628  0.2063996682763742
  0.2374147487184574  0.1779448021964264  0.4158079385135110
  0.8600861232379124  0.5675049453347750  0.4959320319488343
  0.7380557045089785  0.0678153750985525  0.4956123189574579
  0.3599274208429764  0.6774506860610182  0.4161550545180341
  0.8610641624781378  0.5668248073247714  0.9159800989164948
  0.2367171969928090  0.1785373246477492 -0.0040733577270772
  0.3611389956672142  0.6788673354082457 -0.0045001249354994
  0.7367562622829104  0.0669964891963184  0.9162597655662841
  0.1304121567544912  0.8764597338786555  0.7059233578261551
  0.9673348748909153  0.8682685070190124  0.2058791991261425
  0.6301967663550561  0.3681591075501693  0.2058995394346927
  0.4673838342492157  0.3772244284618226  0.7058496253213841
  0.0490155168829140  0.8725429606081445  0.4558898769436798
  0.5488971158039745  0.3725645818983829  0.4558485674085783
  0.0488120017508591  0.8727573402434079  0.9558544308727759
  0.5487301792974840  0.3728917439201868  0.9559016478265207
 
  0.00000000E+00  0.00000000E+00  0.00000000E+00
  0.00000000E+00  0.00000000E+00  0.00000000E+00
  0.00000000E+00  0.00000000E+00  0.00000000E+00
  0.00000000E+00  0.00000000E+00  0.00000000E+00
  0.00000000E+00  0.00000000E+00  0.00000000E+00
  0.00000000E+00  0.00000000E+00  0.00000000E+00
  0.00000000E+00  0.00000000E+00  0.00000000E+00
  0.00000000E+00  0.00000000E+00  0.00000000E+00
  0.00000000E+00  0.00000000E+00  0.00000000E+00
  0.00000000E+00  0.00000000E+00  0.00000000E+00
  0.00000000E+00  0.00000000E+00  0.00000000E+00
  0.00000000E+00  0.00000000E+00  0.00000000E+00
  0.00000000E+00  0.00000000E+00  0.00000000E+00
  0.00000000E+00  0.00000000E+00  0.00000000E+00
  0.00000000E+00  0.00000000E+00  0.00000000E+00
  0.00000000E+00  0.00000000E+00  0.00000000E+00
  0.00000000E+00  0.00000000E+00  0.00000000E+00
  0.00000000E+00  0.00000000E+00  0.00000000E+00
  0.00000000E+00  0.00000000E+00  0.00000000E+00
  0.00000000E+00  0.00000000E+00  0.00000000E+00
