Poscar file generated with pyiron       
   1.00000000000000     
     8.4201893194231001    0.0346756897964477   -0.2939526562872971
    -0.0266610703569064    8.9816340763527958    0.5305969231364038
     0.4424513572388910   -0.7268615857495837   12.4585141937134605
   Cs   I    Pb
     4    12     4
Direct
  0.0785713495627418  0.4510187466449135  0.2071274182220916
  0.0188207679857843  0.2884816687859157  0.7070919991566855
  0.5781828253093537  0.7886458788563792  0.7071529187028274
  0.5190825074439029  0.9520739575534831  0.2069722900238307
  0.2339261721397978  0.1772469427361352  0.4177344258882838
  0.8635003271505081  0.5627481307683975  0.4972238065920490
  0.7337193011816013  0.0628287862232821  0.4961797709927369
  0.3635036970657363  0.6775367241975544  0.4177534369091387
  0.8636963541759974  0.5625601016125606  0.9171240717942918
  0.2338473457450872  0.1770504556634374  0.9972431134051615
  0.3634758440872295  0.6775007908089450 -0.0035524197339101
  0.7338261470043592  0.0628625201662196  0.9178340938856520
  0.1308998379974595  0.8736830480517853  0.7074822344623021
  0.9666491255926060  0.8657861475129889  0.2075908376100724
  0.6298590688121805  0.3684577474013692  0.2074378152517095
  0.4669085005248442  0.3723872523550555  0.7075540745292891
  0.0487211011012779  0.8699591495689605  0.4576569210574677
  0.5484372449808134  0.3702800003812824  0.4576209521472500
  0.0482443070251928  0.8699165117673987  0.9575824893247198
  0.5486211231863587  0.3702540778369890  0.9575441849166307
 
  0.00000000E+00  0.00000000E+00  0.00000000E+00
  0.00000000E+00  0.00000000E+00  0.00000000E+00
  0.00000000E+00  0.00000000E+00  0.00000000E+00
  0.00000000E+00  0.00000000E+00  0.00000000E+00
  0.00000000E+00  0.00000000E+00  0.00000000E+00
  0.00000000E+00  0.00000000E+00  0.00000000E+00
  0.00000000E+00  0.00000000E+00  0.00000000E+00
  0.00000000E+00  0.00000000E+00  0.00000000E+00
  0.00000000E+00  0.00000000E+00  0.00000000E+00
  0.00000000E+00  0.00000000E+00  0.00000000E+00
  0.00000000E+00  0.00000000E+00  0.00000000E+00
  0.00000000E+00  0.00000000E+00  0.00000000E+00
  0.00000000E+00  0.00000000E+00  0.00000000E+00
  0.00000000E+00  0.00000000E+00  0.00000000E+00
  0.00000000E+00  0.00000000E+00  0.00000000E+00
  0.00000000E+00  0.00000000E+00  0.00000000E+00
  0.00000000E+00  0.00000000E+00  0.00000000E+00
  0.00000000E+00  0.00000000E+00  0.00000000E+00
  0.00000000E+00  0.00000000E+00  0.00000000E+00
  0.00000000E+00  0.00000000E+00  0.00000000E+00
