Poscar file generated with pyiron       
   1.00000000000000     
     8.4005526702471744    0.0696804768151116   -0.2264036861230191
    -0.0724667745012323    8.9974676282191037    0.2255308536647095
     0.3398072387401295   -0.3126784627294218   12.4796604091147483
   Cs   I    Pb
     4    12     4
Direct
  0.0897923337908253  0.3505762351585904  0.2257153324440116
  0.0280695174119015  0.5156239502122281  0.7257866977952963
  0.5897458514685008  0.0170244339849436  0.7247914677487619
  0.5286558484939916  0.8516588094888268  0.2248325127920564
  0.3761791506211877  0.1261725760920938  0.4358640272117802
  0.7444330812867148  0.7415643616135061  0.5150462699501712
  0.8764181882108779  0.2414324519120017  0.5146927387447673
  0.2445665845153114  0.6254831269982192  0.4356998457094785
  0.7411817802568812  0.7424699890989110  0.9357505121320349
  0.3733630709776473  0.1264893098957660  0.0147515237451786
  0.2416413446383536  0.6253865338155056  0.0151040722969291
  0.8732815267278922  0.2408224663925688  0.9355409199375803
  0.1416790566991895  0.9294997396766190  0.7255762490997496
  0.9779499796536274  0.9358792563783525  0.2255586197225234
  0.6411629629529429  0.4367077840942560  0.2248745112685970
  0.4776437260653457  0.4323148092387104  0.7249714875484986
  0.0608119092793016  0.9335843259680783  0.4756019698969942
  0.5604929912531686  0.4343142075338348  0.4750458473569238
  0.0580824891011522  0.9336676668891384  0.9753510388100423
  0.5578683387537208  0.4343471491519453  0.9752183599665268
 
  0.00000000E+00  0.00000000E+00  0.00000000E+00
  0.00000000E+00  0.00000000E+00  0.00000000E+00
  0.00000000E+00  0.00000000E+00  0.00000000E+00
  0.00000000E+00  0.00000000E+00  0.00000000E+00
  0.00000000E+00  0.00000000E+00  0.00000000E+00
  0.00000000E+00  0.00000000E+00  0.00000000E+00
  0.00000000E+00  0.00000000E+00  0.00000000E+00
  0.00000000E+00  0.00000000E+00  0.00000000E+00
  0.00000000E+00  0.00000000E+00  0.00000000E+00
  0.00000000E+00  0.00000000E+00  0.00000000E+00
  0.00000000E+00  0.00000000E+00  0.00000000E+00
  0.00000000E+00  0.00000000E+00  0.00000000E+00
  0.00000000E+00  0.00000000E+00  0.00000000E+00
  0.00000000E+00  0.00000000E+00  0.00000000E+00
  0.00000000E+00  0.00000000E+00  0.00000000E+00
  0.00000000E+00  0.00000000E+00  0.00000000E+00
  0.00000000E+00  0.00000000E+00  0.00000000E+00
  0.00000000E+00  0.00000000E+00  0.00000000E+00
  0.00000000E+00  0.00000000E+00  0.00000000E+00
  0.00000000E+00  0.00000000E+00  0.00000000E+00
