Poscar file generated with pyiron       
   1.00000000000000     
     8.4542580586660847   -0.0994845660050458   -0.1967806936417275
     0.1083415660941721    8.9747989011690965    0.4797113377080773
     0.2810868364500321   -0.6728335888428728   12.4485302287073942
   Cs   I    Pb
     4    12     4
Direct
  0.1125791009788177  0.3048682464820487  0.2202324950374284
  0.0568082123372003  0.4640634050326788  0.7194605544160159
  0.6127296463673643  0.9663957719564158  0.7188197793620663
  0.5555331055595563  0.8077899675817227  0.2189973778254590
  0.3971197701230648  0.0802868190373121  0.4290066437857035
  0.7720436361777330  0.6916323691638263  0.5091184470338972
  0.8974546633546499  0.1909172083599775  0.5087317674325278
  0.2725203520786441  0.5794013772801212  0.4294748403983353
  0.7708633719824489  0.6921236660134201  0.9282124086217951
  0.3962257626714076  0.0803536292943946  0.0089188605412988
  0.2708488449625385  0.5789607371888975  0.0093338890280372
  0.8965216738587420  0.1909391846749005  0.9300574866851685
  0.1675526048011108  0.8806142864801220  0.7187135975654677
  0.0031554877636984 -0.1116972906876282  0.2188984810864881
  0.6684540905049505  0.3928149470210853  0.2186845957096655
  0.5034806669850604  0.3831745022902845  0.7187297851552794
  0.0849303511850175  0.8847200215693809  0.4687643877920451
  0.5856267545127967  0.3858024600574652  0.4685300832960833
  0.0843384873752449  0.8853714121477795  0.9686152937729954
  0.5839945900051476  0.3864404517737373  0.9689522312061956
 
  0.00000000E+00  0.00000000E+00  0.00000000E+00
  0.00000000E+00  0.00000000E+00  0.00000000E+00
  0.00000000E+00  0.00000000E+00  0.00000000E+00
  0.00000000E+00  0.00000000E+00  0.00000000E+00
  0.00000000E+00  0.00000000E+00  0.00000000E+00
  0.00000000E+00  0.00000000E+00  0.00000000E+00
  0.00000000E+00  0.00000000E+00  0.00000000E+00
  0.00000000E+00  0.00000000E+00  0.00000000E+00
  0.00000000E+00  0.00000000E+00  0.00000000E+00
  0.00000000E+00  0.00000000E+00  0.00000000E+00
  0.00000000E+00  0.00000000E+00  0.00000000E+00
  0.00000000E+00  0.00000000E+00  0.00000000E+00
  0.00000000E+00  0.00000000E+00  0.00000000E+00
  0.00000000E+00  0.00000000E+00  0.00000000E+00
  0.00000000E+00  0.00000000E+00  0.00000000E+00
  0.00000000E+00  0.00000000E+00  0.00000000E+00
  0.00000000E+00  0.00000000E+00  0.00000000E+00
  0.00000000E+00  0.00000000E+00  0.00000000E+00
  0.00000000E+00  0.00000000E+00  0.00000000E+00
  0.00000000E+00  0.00000000E+00  0.00000000E+00
