Poscar file generated with pyiron       
   1.00000000000000     
     8.3790364531649981    0.0520416145538635   -0.2799304277983887
    -0.0404309202911085    9.0130239539996531    0.3093087508492309
     0.4197625521925390   -0.4229508904191635   12.4928894868467673
   Cs   I    Pb
     4    12     4
Direct
  0.1059380012618263  0.3677708742500467  0.2285497879263826
  0.0422443971698416  0.5349764229435233  0.7282380020401310
  0.6057432312094028  0.0341999605136970  0.7302352172760430
  0.5421911908333170  0.8674878913083384  0.2300137372215889
  0.3892174213754560  0.1424896256904811  0.4403778668144914
  0.7546460495841378  0.7596303648970401  0.5186564755542958
  0.8898927525777226  0.2600950362534912  0.5179435252390728
  0.2549046335389443  0.6426223280321880  0.4399091398291858
  0.7588537360541695  0.7591959118308090  0.9401383183796841
  0.3928254006644148  0.1425562458820351  0.0189687623512931
  0.2586967623787261  0.6428018771142461  0.0180005262666950
  0.8932057342448493  0.2599606843429734  0.9395772246860244
  0.1549873170077022  0.9489837275698054  0.7286713845118329
  0.9930820029192468  0.9535466096464906  0.2286295243448864
  0.6544796446229488  0.4532692287445704  0.2292721905934391
  0.4930462146584151  0.4478106080858996  0.7292840804545850
  0.0715709843757112 -0.0486393833863652  0.4787750451975216
  0.5719754386444347  0.4508209713923329  0.4791384955935183
  0.0758925682253215  0.9511120223596263  0.9786839435208829
  0.5757953827319209  0.4509974666095456  0.9791064805329165
 
  0.00000000E+00  0.00000000E+00  0.00000000E+00
  0.00000000E+00  0.00000000E+00  0.00000000E+00
  0.00000000E+00  0.00000000E+00  0.00000000E+00
  0.00000000E+00  0.00000000E+00  0.00000000E+00
  0.00000000E+00  0.00000000E+00  0.00000000E+00
  0.00000000E+00  0.00000000E+00  0.00000000E+00
  0.00000000E+00  0.00000000E+00  0.00000000E+00
  0.00000000E+00  0.00000000E+00  0.00000000E+00
  0.00000000E+00  0.00000000E+00  0.00000000E+00
  0.00000000E+00  0.00000000E+00  0.00000000E+00
  0.00000000E+00  0.00000000E+00  0.00000000E+00
  0.00000000E+00  0.00000000E+00  0.00000000E+00
  0.00000000E+00  0.00000000E+00  0.00000000E+00
  0.00000000E+00  0.00000000E+00  0.00000000E+00
  0.00000000E+00  0.00000000E+00  0.00000000E+00
  0.00000000E+00  0.00000000E+00  0.00000000E+00
  0.00000000E+00  0.00000000E+00  0.00000000E+00
  0.00000000E+00  0.00000000E+00  0.00000000E+00
  0.00000000E+00  0.00000000E+00  0.00000000E+00
  0.00000000E+00  0.00000000E+00  0.00000000E+00
