Poscar file generated with pyiron       
   1.00000000000000     
     8.4242202790320082    0.0167519399555636   -0.2093619889275424
    -0.0121157138859310    8.9999319115504868    0.2572087012723802
     0.3184399721438576   -0.3571701606026612   12.4790933647201232
   Cs   I    Pb
     4    12     4
Direct
  0.0784327162092425  0.3584992033786091  0.2243094877882321
  0.0184190885962511  0.5221594510173290  0.7245300511626764
  0.5779841323357656  0.0210636771702364  0.7243155190047011
  0.5184475414944288  0.8580091801629637  0.2241448999022231
  0.3627942329500763  0.1329422768596514  0.4342446855871392
  0.7333816251990704  0.7469898386205518  0.5141820660863331
  0.8628448923378413  0.2475007154944631  0.5142845415426627
  0.2335941804123063  0.6332294736619076  0.4349251874150024
  0.7335185702655251  0.7470240215291046  0.9343477216210944
  0.3630019715863227  0.1325525443336115  0.0143121380963416
  0.2335266831221101  0.6328839965076541  0.0141201450616897
  0.8630859609262751  0.2471535968455683  0.9347047005408988
  0.1295790319330136  0.9375615320339600  0.7241197421788345
  0.9657056578350518  0.9432493286661795  0.2242871222635584
  0.6303779273584067  0.4431699109784940  0.2242578550967046
  0.4659513069962536  0.4357669176605521  0.7245183179118445
  0.0476063383236839  0.9401614153938354  0.4740841196512329
  0.5479771040890363  0.4396774106898440  0.4742580866898415
  0.0479434411507352  0.9400036293608612  0.9741374649293747
  0.5479465991580320  0.4395837571718157  0.9742959191959418
 
  0.00000000E+00  0.00000000E+00  0.00000000E+00
  0.00000000E+00  0.00000000E+00  0.00000000E+00
  0.00000000E+00  0.00000000E+00  0.00000000E+00
  0.00000000E+00  0.00000000E+00  0.00000000E+00
  0.00000000E+00  0.00000000E+00  0.00000000E+00
  0.00000000E+00  0.00000000E+00  0.00000000E+00
  0.00000000E+00  0.00000000E+00  0.00000000E+00
  0.00000000E+00  0.00000000E+00  0.00000000E+00
  0.00000000E+00  0.00000000E+00  0.00000000E+00
  0.00000000E+00  0.00000000E+00  0.00000000E+00
  0.00000000E+00  0.00000000E+00  0.00000000E+00
  0.00000000E+00  0.00000000E+00  0.00000000E+00
  0.00000000E+00  0.00000000E+00  0.00000000E+00
  0.00000000E+00  0.00000000E+00  0.00000000E+00
  0.00000000E+00  0.00000000E+00  0.00000000E+00
  0.00000000E+00  0.00000000E+00  0.00000000E+00
  0.00000000E+00  0.00000000E+00  0.00000000E+00
  0.00000000E+00  0.00000000E+00  0.00000000E+00
  0.00000000E+00  0.00000000E+00  0.00000000E+00
  0.00000000E+00  0.00000000E+00  0.00000000E+00
