Poscar file generated with pyiron       
   1.00000000000000     
     8.4224483747634373   -0.0001403615205698   -0.4477704136931446
     0.0219425521236067    8.9798724025946175    0.4862089807678638
     0.6559355699466323   -0.6686732540856554   12.4442017074522830
   Cs   I    Pb
     4    12     4
Direct
  0.1182330881798992  0.2992631390082451  0.2188684486315439
  0.0604907875399481  0.4633759836610751  0.7189479273160153
  0.6196693038433143  0.9644536321496393  0.7177585545273043
  0.5592300774754729  0.8011638205303310  0.2176248018322013
  0.4046586134363062  0.0745661990184605  0.4281103386149914
  0.7764035315301966  0.6880267703069664  0.5084730692327577
  0.9040508125601208  0.1876728133694093  0.5080048399287523
  0.2759747193159537  0.5742532900038744  0.4285040485993515
  0.7741442551435710  0.6888936557668311  0.9277321468641914
  0.4026565943414537  0.0751784970505484  0.0079086183968796
  0.2739022143569260  0.5737724770856395  0.0082908177819611
  0.9027319789032533  0.1880466156304961  0.9293070807839141
  0.1717008285370533  0.8781595895674149  0.7186516748074511
  0.0074629982865392  0.8830121993479000  0.2185543383576489
  0.6724059295362919  0.3867592320835312  0.2179480865298271
  0.5077618590925058  0.3784362171430701  0.7179165939413683
  0.0904538690319098  0.8812534126594654  0.4684316150263794
  0.5902416643491284  0.3817709613720316  0.4677265468219896
  0.0887970551089954  0.8811746500361528  0.9685286068649486
  0.5887955542614431  0.3820008259152337  0.9680208657011171
 
  0.00000000E+00  0.00000000E+00  0.00000000E+00
  0.00000000E+00  0.00000000E+00  0.00000000E+00
  0.00000000E+00  0.00000000E+00  0.00000000E+00
  0.00000000E+00  0.00000000E+00  0.00000000E+00
  0.00000000E+00  0.00000000E+00  0.00000000E+00
  0.00000000E+00  0.00000000E+00  0.00000000E+00
  0.00000000E+00  0.00000000E+00  0.00000000E+00
  0.00000000E+00  0.00000000E+00  0.00000000E+00
  0.00000000E+00  0.00000000E+00  0.00000000E+00
  0.00000000E+00  0.00000000E+00  0.00000000E+00
  0.00000000E+00  0.00000000E+00  0.00000000E+00
  0.00000000E+00  0.00000000E+00  0.00000000E+00
  0.00000000E+00  0.00000000E+00  0.00000000E+00
  0.00000000E+00  0.00000000E+00  0.00000000E+00
  0.00000000E+00  0.00000000E+00  0.00000000E+00
  0.00000000E+00  0.00000000E+00  0.00000000E+00
  0.00000000E+00  0.00000000E+00  0.00000000E+00
  0.00000000E+00  0.00000000E+00  0.00000000E+00
  0.00000000E+00  0.00000000E+00  0.00000000E+00
  0.00000000E+00  0.00000000E+00  0.00000000E+00
