Poscar file generated with pyiron       
   1.00000000000000     
     8.4180019804358164    0.0824798946635636   -0.0665856434412131
    -0.0875957806344777    8.9801494250506497    0.6044558776433752
     0.1109953525689484   -0.8199009334587767   12.4718776247930965
   Cs   I    Pb
     4    12     4
Direct
  0.1003239654121667  0.4545198010500343  0.2208804480003689
  0.0396592351612499  0.2910079328773529  0.7214646055463215
  0.6000542762297608  0.7917426206113014  0.7209934058764277
  0.5403263518965110  0.9554924793062936  0.2208613510556077
  0.2544034716197942  0.1803025523392482  0.4319193467157805
  0.8855750327596362  0.5645748376486389  0.5108579675666641
  0.7542992108692844  0.0651010185794711  0.5090246098609199
  0.3860968025813307  0.6813630249762067  0.4325212374513511
  0.8859279860330033  0.5659401302822238  0.9313760810088708
  0.2547440778878892  0.1813609373872550  0.0106550196341412
  0.3853729177402969  0.6816321233712149  0.0100730138887619
  0.7545670908646015  0.0662427570958064  0.9316616855547676
  0.1509976070041756  0.8766022862141511  0.7210480674962065
  0.9891569574207221  0.8688998120624389  0.2210544127787229
  0.6509435397752112  0.3722045791933206  0.2213133536984272
  0.4891132347294146  0.3752628795990828  0.7214046807741382
  0.0699531709592393  0.8726076460441939  0.4712501545833728
  0.5696603739865672  0.3731532367043827  0.4713650248624827
  0.0698672177501605  0.8738666674114538  0.9712394325920950
  0.5702523711476749  0.3741849445040437  0.9713313378623292
 
  0.00000000E+00  0.00000000E+00  0.00000000E+00
  0.00000000E+00  0.00000000E+00  0.00000000E+00
  0.00000000E+00  0.00000000E+00  0.00000000E+00
  0.00000000E+00  0.00000000E+00  0.00000000E+00
  0.00000000E+00  0.00000000E+00  0.00000000E+00
  0.00000000E+00  0.00000000E+00  0.00000000E+00
  0.00000000E+00  0.00000000E+00  0.00000000E+00
  0.00000000E+00  0.00000000E+00  0.00000000E+00
  0.00000000E+00  0.00000000E+00  0.00000000E+00
  0.00000000E+00  0.00000000E+00  0.00000000E+00
  0.00000000E+00  0.00000000E+00  0.00000000E+00
  0.00000000E+00  0.00000000E+00  0.00000000E+00
  0.00000000E+00  0.00000000E+00  0.00000000E+00
  0.00000000E+00  0.00000000E+00  0.00000000E+00
  0.00000000E+00  0.00000000E+00  0.00000000E+00
  0.00000000E+00  0.00000000E+00  0.00000000E+00
  0.00000000E+00  0.00000000E+00  0.00000000E+00
  0.00000000E+00  0.00000000E+00  0.00000000E+00
  0.00000000E+00  0.00000000E+00  0.00000000E+00
  0.00000000E+00  0.00000000E+00  0.00000000E+00
