Poscar file generated with pyiron       
   1.00000000000000     
     8.8538725307944492   -0.2563865859028261   -0.1790016112926906
    -0.0915207180383353    8.8314213982180210    0.2682590126391254
     0.2267964882853268   -0.2246231266624664   12.2954672373487295
   Cs   I    Pb
     4    12     4
Direct
  0.0908475747032599  0.3191615951348201  0.2204717062381083
  0.0725553549917340  0.3355143331494383  0.7131576082456896
  0.5761843582252263  0.8398857933353721  0.7248656489335618
  0.5849526988280258  0.8129926310519132  0.2031261082870247
  0.3625561048439785  0.0469782694393358  0.4021371645071425
  0.8030572437252702  0.6048389251889511  0.5294964293480584
  0.8653064433340544  0.1101327446289910  0.4711765554454104
  0.2999719722326898  0.5445335945522558  0.4612423459868440
  0.8272415239898736  0.5801308680159716  0.8987833883479092
  0.3314373656894198  0.0739922811684165  0.0329058017517199
  0.3289283837775171  0.5750461939700470  0.9706713630680941
  0.8307333134202023  0.0770983354756808  0.9607171200282767
  0.1477532769264299  0.8926879805445912  0.7157590284579847
  0.0138156413602438  0.7612181365575130  0.2163604907699244
  0.6547638154449700  0.3844359924959024  0.2151821678369234
  0.5076938362685496  0.2686750125951543  0.7163657366497980
  0.0819501620028106  0.8268831523906933  0.4659846126768750
  0.5820163417229943  0.3263805796769894  0.4658408222559342
  0.0800834597776563  0.8261715267939542  0.9658189199167201
  0.5802939873823807  0.3261147830773125  0.9659015409669850
 
  0.00000000E+00  0.00000000E+00  0.00000000E+00
  0.00000000E+00  0.00000000E+00  0.00000000E+00
  0.00000000E+00  0.00000000E+00  0.00000000E+00
  0.00000000E+00  0.00000000E+00  0.00000000E+00
  0.00000000E+00  0.00000000E+00  0.00000000E+00
  0.00000000E+00  0.00000000E+00  0.00000000E+00
  0.00000000E+00  0.00000000E+00  0.00000000E+00
  0.00000000E+00  0.00000000E+00  0.00000000E+00
  0.00000000E+00  0.00000000E+00  0.00000000E+00
  0.00000000E+00  0.00000000E+00  0.00000000E+00
  0.00000000E+00  0.00000000E+00  0.00000000E+00
  0.00000000E+00  0.00000000E+00  0.00000000E+00
  0.00000000E+00  0.00000000E+00  0.00000000E+00
  0.00000000E+00  0.00000000E+00  0.00000000E+00
  0.00000000E+00  0.00000000E+00  0.00000000E+00
  0.00000000E+00  0.00000000E+00  0.00000000E+00
  0.00000000E+00  0.00000000E+00  0.00000000E+00
  0.00000000E+00  0.00000000E+00  0.00000000E+00
  0.00000000E+00  0.00000000E+00  0.00000000E+00
  0.00000000E+00  0.00000000E+00  0.00000000E+00
