Poscar file generated with pyiron       
   1.00000000000000     
     8.8957585008850728    0.3777880433818350   -0.3513466690491269
    -0.0127429376997025    8.8178316089971496    0.3871056019408687
     0.5006891491842899   -0.5133716440436948   12.2324829426722239
   Cs   I    Pb
     4    12     4
Direct
  0.0709188231547919  0.3892445853857537  0.2025476017229126
  0.0518773580971037  0.4010632506676053  0.7027800253314498
  0.5720208767976862  0.8793338610185535  0.7325272773843911
  0.5497801696395256  0.9077744494782576  0.2326562785911087
  0.2940543538612583  0.1551500324092605  0.4465504949796016
  0.8009772669827626  0.6478698525579628  0.4866251739153036
  0.7935500174212096  0.1365310670042051  0.5351692353232940
  0.2991042245765865  0.6421861804320292  0.4003235702714376
  0.8291621247257706  0.6333430127778603  0.9479426214086846
  0.3206506420874125  0.1419361671219521  0.9870800836273210
  0.3292659418532620  0.6533975640789399  0.0337307009880722
  0.8221872643463614  0.1465314893382970  0.8992663806935717
  0.1444847188594569  0.8436249187022236  0.7148617395038669
  0.9769033340183518  0.9470604160591917  0.2150085849608551
  0.6445195584623428  0.3430420202209559  0.2195767987503235
  0.4781454446206950  0.4448928595714476  0.7196458713434601
  0.0541757716564760  0.8970782108510401  0.4659469678696215
  0.5545440192864460  0.3963389738992975  0.4686226826235309
  0.0675728330444934  0.8930490300704403  0.9661050106216195
  0.5680087815480397  0.3923979287583271  0.9687921591574855
 
  0.00000000E+00  0.00000000E+00  0.00000000E+00
  0.00000000E+00  0.00000000E+00  0.00000000E+00
  0.00000000E+00  0.00000000E+00  0.00000000E+00
  0.00000000E+00  0.00000000E+00  0.00000000E+00
  0.00000000E+00  0.00000000E+00  0.00000000E+00
  0.00000000E+00  0.00000000E+00  0.00000000E+00
  0.00000000E+00  0.00000000E+00  0.00000000E+00
  0.00000000E+00  0.00000000E+00  0.00000000E+00
  0.00000000E+00  0.00000000E+00  0.00000000E+00
  0.00000000E+00  0.00000000E+00  0.00000000E+00
  0.00000000E+00  0.00000000E+00  0.00000000E+00
  0.00000000E+00  0.00000000E+00  0.00000000E+00
  0.00000000E+00  0.00000000E+00  0.00000000E+00
  0.00000000E+00  0.00000000E+00  0.00000000E+00
  0.00000000E+00  0.00000000E+00  0.00000000E+00
  0.00000000E+00  0.00000000E+00  0.00000000E+00
  0.00000000E+00  0.00000000E+00  0.00000000E+00
  0.00000000E+00  0.00000000E+00  0.00000000E+00
  0.00000000E+00  0.00000000E+00  0.00000000E+00
  0.00000000E+00  0.00000000E+00  0.00000000E+00
