Poscar file generated with pyiron       
   1.00000000000000     
     8.8656757267209514    0.4374529819146686   -0.4766209804655416
    -0.0770569039814250    8.8222699565124980    0.3856997719817837
     0.6851799992500112   -0.5816503051840353   12.2421322816970619
   Cs   I    Pb
     4    12     4
Direct
  0.1013224859202622  0.3832342842563184  0.2269584245125745
  0.0797334352321952  0.3672306798892506  0.7260786889821029
  0.5998704300608594  0.8507112808299437  0.7597643771907820
  0.5816879681982695  0.9009254828322077  0.2563934727992023
  0.3094189061981342  0.1499562909833248  0.4695498438153497
  0.8474678017189001  0.6114855565759590  0.5059306850357128
  0.8067017255390182  0.1007589007559953  0.5543052866684801
  0.3415239212760364  0.6352199897773279  0.4226369201505968
  0.8675048924753733  0.6064531269783384  0.9709657621313571
  0.3426026113850449  0.1321564323587119  0.0075196002671250
  0.3686665651222255  0.6437426671097706  0.0551955903470434
  0.8456983327682087  0.1199528318460244  0.9226240633367608
  0.1722065151578998  0.8210339154433414  0.7369246752508678
  0.0104489467968180  0.9301788542002785  0.2370945781374804
  0.6736275754303120  0.3274344839151035  0.2413764083246080
  0.5082948340438401  0.4233604204086845  0.7417024897242863
  0.0838034320077318  0.8776602874914242  0.4883394255014454
  0.5839665005484976  0.3772065317856086  0.4909365762874288
  0.0986669595134498  0.8736321346596229  0.9883712046886662
  0.5984088588961408  0.3738754984399016  0.9909937846588621
 
  0.00000000E+00  0.00000000E+00  0.00000000E+00
  0.00000000E+00  0.00000000E+00  0.00000000E+00
  0.00000000E+00  0.00000000E+00  0.00000000E+00
  0.00000000E+00  0.00000000E+00  0.00000000E+00
  0.00000000E+00  0.00000000E+00  0.00000000E+00
  0.00000000E+00  0.00000000E+00  0.00000000E+00
  0.00000000E+00  0.00000000E+00  0.00000000E+00
  0.00000000E+00  0.00000000E+00  0.00000000E+00
  0.00000000E+00  0.00000000E+00  0.00000000E+00
  0.00000000E+00  0.00000000E+00  0.00000000E+00
  0.00000000E+00  0.00000000E+00  0.00000000E+00
  0.00000000E+00  0.00000000E+00  0.00000000E+00
  0.00000000E+00  0.00000000E+00  0.00000000E+00
  0.00000000E+00  0.00000000E+00  0.00000000E+00
  0.00000000E+00  0.00000000E+00  0.00000000E+00
  0.00000000E+00  0.00000000E+00  0.00000000E+00
  0.00000000E+00  0.00000000E+00  0.00000000E+00
  0.00000000E+00  0.00000000E+00  0.00000000E+00
  0.00000000E+00  0.00000000E+00  0.00000000E+00
  0.00000000E+00  0.00000000E+00  0.00000000E+00
