Poscar file generated with pyiron       
   1.00000000000000     
     8.4133036264195837    0.0321545467615085   -0.4094666679313185
    -0.0100801742096625    8.9755218246330593    0.4676171827541598
     0.6086439552384872   -0.6427952737921557   12.4513334719695941
   Cs   I    Pb
     4    12     4
Direct
  0.1326779753848153  0.3140547597211352  0.2182099954626749
  0.0735198262658299  0.4771760161353979  0.7184986769845528
  0.6323975618798736  0.9769966158028772  0.7187803798700508
  0.5734680207192239  0.8142689623768217  0.2190234255652839
  0.4171513366717736  0.0883611753369855  0.4290983853667156
  0.7878385344691621  0.7027175696257051  0.5085788988335485
  0.9173957086448578  0.2024472337657636  0.5084604972383956
  0.2878241202619092  0.5879124014341341  0.4288255321090563
  0.7882029732804947  0.7026540130351688  0.9290722580399376
  0.4179352644319851  0.0879862133432396  0.0084109287083889
  0.2886759836764962  0.5884403762203410  0.0084512843914771
  0.9178578795129029  0.2026635418775773  0.9288158760161127
  0.1845197124337650  0.8930240858675422  0.7187685622264086
  0.0210228122042336  0.8987060004521630  0.2187933434440211
  0.6848504756343823  0.3977733208126644  0.2188641763166145
  0.5208855640087729  0.3931607425115430  0.7188929271921010
  0.1027419628727609  0.8951832632400761  0.4687410508557870
  0.6027343294832173  0.3953075650894409  0.4688762939979683
  0.1029654452054362  0.8952322034280041  0.9687884499163206
  0.6032843779261946  0.3951811365192038  0.9688775113079386
 
  0.00000000E+00  0.00000000E+00  0.00000000E+00
  0.00000000E+00  0.00000000E+00  0.00000000E+00
  0.00000000E+00  0.00000000E+00  0.00000000E+00
  0.00000000E+00  0.00000000E+00  0.00000000E+00
  0.00000000E+00  0.00000000E+00  0.00000000E+00
  0.00000000E+00  0.00000000E+00  0.00000000E+00
  0.00000000E+00  0.00000000E+00  0.00000000E+00
  0.00000000E+00  0.00000000E+00  0.00000000E+00
  0.00000000E+00  0.00000000E+00  0.00000000E+00
  0.00000000E+00  0.00000000E+00  0.00000000E+00
  0.00000000E+00  0.00000000E+00  0.00000000E+00
  0.00000000E+00  0.00000000E+00  0.00000000E+00
  0.00000000E+00  0.00000000E+00  0.00000000E+00
  0.00000000E+00  0.00000000E+00  0.00000000E+00
  0.00000000E+00  0.00000000E+00  0.00000000E+00
  0.00000000E+00  0.00000000E+00  0.00000000E+00
  0.00000000E+00  0.00000000E+00  0.00000000E+00
  0.00000000E+00  0.00000000E+00  0.00000000E+00
  0.00000000E+00  0.00000000E+00  0.00000000E+00
  0.00000000E+00  0.00000000E+00  0.00000000E+00
