Poscar file generated with pyiron       
   1.00000000000000     
     8.8652889840735281    0.1307645476156649   -0.2296305816635057
     0.2373378865853727    8.8198253193941714    0.4338546636227767
     0.2748792976882792   -0.3344797602949535   12.2822517950973147
   Cs   I    Pb
     4    12     4
Direct
  0.0599484858122225  0.3417096586996934  0.1995220598855237
  0.0524151268830318  0.3572734563030222  0.7204040713015498
  0.5614260482728224  0.8493881599723759  0.7069320490470863
  0.5509203595012206  0.8511155671865278  0.2226166995191381
  0.3294631501086355  0.0755925599270564  0.4556041117849335
  0.7799490671294029  0.6253847931517440  0.4722149347302172
  0.8274597153595620  0.1190411433430783  0.5287029396910106
  0.2827299928443752  0.5790247788042782  0.3962838075082988
  0.8230405806461235  0.5845901173125221  0.9544469603577733
  0.2935802328633572  0.1139344995318421  0.9699397826097268
  0.3209275761576522  0.6113941901061779  0.0291690216910921
  0.7956657546379251  0.0907126512183901  0.8953617529567540
  0.1300261950393103  0.7894001509049319  0.7135115234040502
 -0.0184781395804083  0.9088136170119154  0.2112367980681448
  0.6294215047397551  0.2888293627167850  0.2139692895929021
  0.4830667565982189  0.4120882266071929  0.7119474235198051
  0.0552619280358494  0.8492996784896713  0.4625064677776822
  0.5554961252319022  0.3495594894179138  0.4627905897610575
  0.0570861276874101  0.8502265068989575  0.9622428079643546
  0.5572087982363270  0.3504525716441473 -0.0374860318029336
 
  0.00000000E+00  0.00000000E+00  0.00000000E+00
  0.00000000E+00  0.00000000E+00  0.00000000E+00
  0.00000000E+00  0.00000000E+00  0.00000000E+00
  0.00000000E+00  0.00000000E+00  0.00000000E+00
  0.00000000E+00  0.00000000E+00  0.00000000E+00
  0.00000000E+00  0.00000000E+00  0.00000000E+00
  0.00000000E+00  0.00000000E+00  0.00000000E+00
  0.00000000E+00  0.00000000E+00  0.00000000E+00
  0.00000000E+00  0.00000000E+00  0.00000000E+00
  0.00000000E+00  0.00000000E+00  0.00000000E+00
  0.00000000E+00  0.00000000E+00  0.00000000E+00
  0.00000000E+00  0.00000000E+00  0.00000000E+00
  0.00000000E+00  0.00000000E+00  0.00000000E+00
  0.00000000E+00  0.00000000E+00  0.00000000E+00
  0.00000000E+00  0.00000000E+00  0.00000000E+00
  0.00000000E+00  0.00000000E+00  0.00000000E+00
  0.00000000E+00  0.00000000E+00  0.00000000E+00
  0.00000000E+00  0.00000000E+00  0.00000000E+00
  0.00000000E+00  0.00000000E+00  0.00000000E+00
  0.00000000E+00  0.00000000E+00  0.00000000E+00
