Poscar file generated with pyiron       
   1.00000000000000     
     8.4781483489008131    0.1279677054294827   -0.3220605897049679
    -0.1213918718899579    8.9729452723684684    0.4225881367630756
     0.4808090511089082   -0.5752428227858406   12.4399758783328469
   Cs   I    Pb
     4    12     4
Direct
  0.0813043533476848  0.4606223769093349  0.2200741083457023
  0.0270615174019365  0.3044633177527562  0.7201044940103070
  0.5810594215561438  0.8030838165824606  0.7195312180302755
  0.5269214176958092  0.9591835875635539  0.2195148272978467
  0.2435299366851758  0.1868535893601377  0.4291878946580547
  0.8657255502915774  0.5772666527992074  0.5102500791165835
  0.7434203473010165  0.0768450392314490  0.5103862951757323
  0.3656762130012579  0.6865168442561125  0.4296164326893209
  0.8646993271036020  0.5774856219046092  0.9295054809992358
  0.2424539450460256  0.1869993647182373  0.0106596381273406
  0.3646158791355166  0.6862998072317223  0.0099705376836111
  0.7423234167159093  0.0767154028074212  0.9291824193582493
  0.1376679531221756  0.8874103819525730  0.7200288776339475
  0.9711844418416296  0.8777208646402587  0.2200322717394354
  0.6378875959322775  0.3764284114171995  0.2197746586176796
  0.4714890320783813  0.3853529208300218  0.7197712677648763
  0.0548006791231427  0.8822692866744865  0.4701913718825487
  0.5547805181567144  0.3816864981284109  0.4698382230514088
  0.0536698523287186  0.8822557595415657  0.9701004237760573
  0.5539431911436669  0.3816687546535008  0.9699759156035411
 
  0.00000000E+00  0.00000000E+00  0.00000000E+00
  0.00000000E+00  0.00000000E+00  0.00000000E+00
  0.00000000E+00  0.00000000E+00  0.00000000E+00
  0.00000000E+00  0.00000000E+00  0.00000000E+00
  0.00000000E+00  0.00000000E+00  0.00000000E+00
  0.00000000E+00  0.00000000E+00  0.00000000E+00
  0.00000000E+00  0.00000000E+00  0.00000000E+00
  0.00000000E+00  0.00000000E+00  0.00000000E+00
  0.00000000E+00  0.00000000E+00  0.00000000E+00
  0.00000000E+00  0.00000000E+00  0.00000000E+00
  0.00000000E+00  0.00000000E+00  0.00000000E+00
  0.00000000E+00  0.00000000E+00  0.00000000E+00
  0.00000000E+00  0.00000000E+00  0.00000000E+00
  0.00000000E+00  0.00000000E+00  0.00000000E+00
  0.00000000E+00  0.00000000E+00  0.00000000E+00
  0.00000000E+00  0.00000000E+00  0.00000000E+00
  0.00000000E+00  0.00000000E+00  0.00000000E+00
  0.00000000E+00  0.00000000E+00  0.00000000E+00
  0.00000000E+00  0.00000000E+00  0.00000000E+00
  0.00000000E+00  0.00000000E+00  0.00000000E+00
