Poscar file generated with pyiron       
   1.00000000000000     
     8.4136894295705353    0.0233394510959905   -0.2910269308222335
    -0.0148937789072036    8.9877178713698225    0.3065489476800826
     0.4339651726162013   -0.4207731518874134   12.4732089900201011
   Cs   I    Pb
     4    12     4
Direct
  0.1026444581865682  0.3533509820656360  0.2391088809861089
  0.0441632314650443  0.5162048889887754  0.7391885838723322
  0.6042131656139716  0.0161937076406614  0.7405229291018353
  0.5448312125437331  0.8531687508240882  0.2407895056334321
  0.3879432890276368  0.1271812506222924  0.4506388700533467
  0.7571462228563505  0.7425725009644292  0.5293002722811111
  0.8879255596937673  0.2423517070683987  0.5289884369358631
  0.2572729962394866  0.6270144098798444  0.4504243413759392
  0.7608642573126037  0.7413475422213418  0.9502039307781797
  0.3905704797939383  0.1267636079974290  0.0294040809291200
  0.2605860061963929  0.6272463840556746  0.0291415810843660
  0.8906655316236576  0.2420223739164972  0.9501546279688872
  0.1561372869506516  0.9315176516736935  0.7393068802590516
  0.9934221168683772  0.9372687697622647  0.2393617096746848
  0.6540340418929161  0.4367837221823556  0.2401651867200438
  0.4923235435019385  0.4313915258763004  0.7402075413449217
  0.0727732201875342  0.9348888534062325  0.4895648683449492
  0.5724403117364834  0.4348011576799638  0.4902950331141809
  0.0756371933501648  0.9343821689310938  0.9893140998237523
  0.5753508253549777  0.4343476854968807  0.9900308732713599
 
  0.00000000E+00  0.00000000E+00  0.00000000E+00
  0.00000000E+00  0.00000000E+00  0.00000000E+00
  0.00000000E+00  0.00000000E+00  0.00000000E+00
  0.00000000E+00  0.00000000E+00  0.00000000E+00
  0.00000000E+00  0.00000000E+00  0.00000000E+00
  0.00000000E+00  0.00000000E+00  0.00000000E+00
  0.00000000E+00  0.00000000E+00  0.00000000E+00
  0.00000000E+00  0.00000000E+00  0.00000000E+00
  0.00000000E+00  0.00000000E+00  0.00000000E+00
  0.00000000E+00  0.00000000E+00  0.00000000E+00
  0.00000000E+00  0.00000000E+00  0.00000000E+00
  0.00000000E+00  0.00000000E+00  0.00000000E+00
  0.00000000E+00  0.00000000E+00  0.00000000E+00
  0.00000000E+00  0.00000000E+00  0.00000000E+00
  0.00000000E+00  0.00000000E+00  0.00000000E+00
  0.00000000E+00  0.00000000E+00  0.00000000E+00
  0.00000000E+00  0.00000000E+00  0.00000000E+00
  0.00000000E+00  0.00000000E+00  0.00000000E+00
  0.00000000E+00  0.00000000E+00  0.00000000E+00
  0.00000000E+00  0.00000000E+00  0.00000000E+00
