Poscar file generated with pyiron       
   1.00000000000000     
     8.4677656839988629   -0.0593700582532945   -0.2476565440352194
     0.0664956461313679    8.9690028266326518    0.2445608747267728
     0.3430959958088236   -0.3470470244622236   12.4698551588161095
   Cs   I    Pb
     4    12     4
Direct
  0.0904378690668472  0.3394124797241742  0.2355803166639513
  0.0375428165983457  0.4957324124401211  0.7357987444624654
  0.5934945442362267  0.9964497046401685  0.7363404461106902
  0.5384960188821145  0.8395149784591903  0.2367165793648617
  0.3759495821614321  0.1121598700474151  0.4460484821985618
  0.7517136759686983  0.7239027250409368  0.5257137013230625
  0.8763159741429253  0.2238199473070688  0.5243171655606442
  0.2513768133459866  0.6116980487144253  0.4466405873163120
  0.7544242884034638  0.7219802268096155  0.9455096866541176
  0.3778803250977299  0.1112900239493163  0.0260177473759256
  0.2536972080124170  0.6108499901078240  0.0254823597540251
  0.8777197725241432  0.2224356541944223  0.9457442857422516
  0.1479311483019907  0.9142783122357876  0.7357426555703480
  0.9849147920602889  0.9197018629818738  0.2354212895772131
  0.6446118097991539  0.4212338676665588  0.2361385994871443
  0.4830334350060929  0.4139939198292234  0.7359874092999021
  0.0642488715179961  0.9177758040537263  0.4859392925908010
  0.5635204092698106  0.4179054067954218  0.4862565259951238
  0.0663564007089432  0.9168187861979212  0.9854841415182597
  0.5656880909929455  0.4168239489080597  0.9859733594091176
 
  0.00000000E+00  0.00000000E+00  0.00000000E+00
  0.00000000E+00  0.00000000E+00  0.00000000E+00
  0.00000000E+00  0.00000000E+00  0.00000000E+00
  0.00000000E+00  0.00000000E+00  0.00000000E+00
  0.00000000E+00  0.00000000E+00  0.00000000E+00
  0.00000000E+00  0.00000000E+00  0.00000000E+00
  0.00000000E+00  0.00000000E+00  0.00000000E+00
  0.00000000E+00  0.00000000E+00  0.00000000E+00
  0.00000000E+00  0.00000000E+00  0.00000000E+00
  0.00000000E+00  0.00000000E+00  0.00000000E+00
  0.00000000E+00  0.00000000E+00  0.00000000E+00
  0.00000000E+00  0.00000000E+00  0.00000000E+00
  0.00000000E+00  0.00000000E+00  0.00000000E+00
  0.00000000E+00  0.00000000E+00  0.00000000E+00
  0.00000000E+00  0.00000000E+00  0.00000000E+00
  0.00000000E+00  0.00000000E+00  0.00000000E+00
  0.00000000E+00  0.00000000E+00  0.00000000E+00
  0.00000000E+00  0.00000000E+00  0.00000000E+00
  0.00000000E+00  0.00000000E+00  0.00000000E+00
  0.00000000E+00  0.00000000E+00  0.00000000E+00
