Poscar file generated with pyiron       
   1.00000000000000     
     8.4298116667644329    0.0608622369420813   -0.1736629470332310
    -0.0616092220666074    8.9924527419861189    0.1920210735573678
     0.2599764785142515   -0.2639761501906243   12.4803192999420940
   Cs   I    Pb
     4    12     4
Direct
  0.0923485104493260  0.3504045198026504  0.2466722511441108
  0.0341317396003869  0.5126133140674400  0.7466270546235173
  0.5928020649551045  0.0123159259799034  0.7468650728215200
  0.5345816390193843  0.8504736945038306  0.2468755000461527
  0.3776837877650843  0.1244836861906762  0.4568267644010091
  0.7488280813909755  0.7384295136097103  0.5365364361110895
  0.8776079687123823  0.2381401879383918  0.5365123788453025
  0.2487413129677850  0.6241560499329407  0.4569668816714090
  0.7498302282143990  0.7381771343277030  0.9569145461397605
  0.3785255971667884  0.1243530090486527  0.0369173556475904
  0.2496927490437819  0.6243076256057557  0.0363626486112256
  0.8784808183737827  0.2382312344465847  0.9570027335563214
  0.1455185187681265  0.9287441652255310  0.7466316225203665
  0.9815307465205727  0.9346468542086371  0.2466405702659755
  0.6455270999027276  0.4351239103953077  0.2468316071514061
  0.4814791324261418  0.4280492743651831  0.7468343059218823
  0.0635246845741385  0.9312103133673887  0.4966554467439920
  0.5634153668109110  0.4313297939032705  0.4968689435014851
  0.0643851042694199  0.9312979958471811  0.9967834526661208
  0.5642530342903344  0.4313623664601687 -0.0032080045166457
 
  0.00000000E+00  0.00000000E+00  0.00000000E+00
  0.00000000E+00  0.00000000E+00  0.00000000E+00
  0.00000000E+00  0.00000000E+00  0.00000000E+00
  0.00000000E+00  0.00000000E+00  0.00000000E+00
  0.00000000E+00  0.00000000E+00  0.00000000E+00
  0.00000000E+00  0.00000000E+00  0.00000000E+00
  0.00000000E+00  0.00000000E+00  0.00000000E+00
  0.00000000E+00  0.00000000E+00  0.00000000E+00
  0.00000000E+00  0.00000000E+00  0.00000000E+00
  0.00000000E+00  0.00000000E+00  0.00000000E+00
  0.00000000E+00  0.00000000E+00  0.00000000E+00
  0.00000000E+00  0.00000000E+00  0.00000000E+00
  0.00000000E+00  0.00000000E+00  0.00000000E+00
  0.00000000E+00  0.00000000E+00  0.00000000E+00
  0.00000000E+00  0.00000000E+00  0.00000000E+00
  0.00000000E+00  0.00000000E+00  0.00000000E+00
  0.00000000E+00  0.00000000E+00  0.00000000E+00
  0.00000000E+00  0.00000000E+00  0.00000000E+00
  0.00000000E+00  0.00000000E+00  0.00000000E+00
  0.00000000E+00  0.00000000E+00  0.00000000E+00
