Poscar file generated with pyiron       
   1.00000000000000     
     8.4446885818954698    0.0821274600900160   -0.1648079242630938
    -0.0811771618207087    8.9944835454292740    0.2382584075780709
     0.2417547396139238   -0.3246332512273871   12.4756237955953715
   Cs   I    Pb
     4    12     4
Direct
  0.0896075367972236  0.3574008142737471  0.2340884524471084
  0.0329160189872526  0.5171440557115624  0.7342879987235724
  0.5905897175132424  0.0173986437430958  0.7337935252333871
  0.5322595234047425  0.8575950787262383  0.2336908021874844
  0.3751085880801830  0.1309291827876943  0.4440499381844871
  0.7475380629210258  0.7436537330303032  0.5235904610004193
  0.8751564609874998  0.2440299433118402  0.5236669354785695
  0.2473447138205929  0.6305163684004704  0.4444308121023564
  0.7480529549459189  0.7436262557572944  0.9437109570824878
  0.3749174843729343  0.1313828022061351  0.0235711497025356
  0.2479020403530975  0.6311247779452280  0.0241996551488791
  0.8747631196718390  0.2436164901592286  0.9443843263688951
  0.1438387923919913  0.9330682487585588  0.7337805595848259
 -0.0208884682375269  0.9411418008143981  0.2341034988811733
  0.6427633921993297  0.4412601067345911  0.2340179910672165
  0.4795797781165113  0.4329221912042876  0.7341103605906782
  0.0614384080676489  0.9373943840342869  0.4839668030740453
  0.5612887715381725  0.4374532005666468  0.4840527100826578
  0.0615890391844242  0.9376255274322154  0.9839699093578799
  0.5614964818595030  0.4376101305555602  0.9840425029429186
 
  0.00000000E+00  0.00000000E+00  0.00000000E+00
  0.00000000E+00  0.00000000E+00  0.00000000E+00
  0.00000000E+00  0.00000000E+00  0.00000000E+00
  0.00000000E+00  0.00000000E+00  0.00000000E+00
  0.00000000E+00  0.00000000E+00  0.00000000E+00
  0.00000000E+00  0.00000000E+00  0.00000000E+00
  0.00000000E+00  0.00000000E+00  0.00000000E+00
  0.00000000E+00  0.00000000E+00  0.00000000E+00
  0.00000000E+00  0.00000000E+00  0.00000000E+00
  0.00000000E+00  0.00000000E+00  0.00000000E+00
  0.00000000E+00  0.00000000E+00  0.00000000E+00
  0.00000000E+00  0.00000000E+00  0.00000000E+00
  0.00000000E+00  0.00000000E+00  0.00000000E+00
  0.00000000E+00  0.00000000E+00  0.00000000E+00
  0.00000000E+00  0.00000000E+00  0.00000000E+00
  0.00000000E+00  0.00000000E+00  0.00000000E+00
  0.00000000E+00  0.00000000E+00  0.00000000E+00
  0.00000000E+00  0.00000000E+00  0.00000000E+00
  0.00000000E+00  0.00000000E+00  0.00000000E+00
  0.00000000E+00  0.00000000E+00  0.00000000E+00
