Poscar file generated with pyiron       
   1.00000000000000     
     8.4313399221214418   -0.0837727429030200   -0.2561323632828083
     0.0924404110081356    8.9928312481980957    0.2976355491892209
     0.3792934083129130   -0.4192185726934062   12.4658158024841672
   Cs   I    Pb
     4    12     4
Direct
  0.0910980131902025  0.3383382919998492  0.2256428884605571
  0.0324945711350516  0.5000055809343529  0.7252387095313652
  0.5911679882580192  0.0013684167288211  0.7254930501844354
  0.5323610349553346  0.8403880339236883  0.2253272987277403
  0.3754138689572485  0.1136622855470890  0.4354400294240846
  0.7473870772144571  0.7268738473880015  0.5157872550561857
  0.8753309924176783  0.2261376215137422  0.5148150956321597
  0.2475675216975262  0.6129037014234862  0.4356955151514343
  0.7480498342063909  0.7267259498240025  0.9346157348171547
  0.3757212593364144  0.1138679419270353  0.0151727277374312
  0.2477284793921114  0.6127912797989876  0.0153206599943322
  0.8758188031877314  0.2260179127580116  0.9360304930280187
  0.1446911584527501  0.9157215687914237  0.7252016124052361
  0.9803675112429113 -0.0782103259785619  0.2252954542628268
  0.6451360747277056  0.4257019662728849  0.2254803362106831
  0.4799793750111557  0.4161939163791696  0.7255316985729933
  0.0615656364438877  0.9193714253841883  0.4754281184114638
  0.5617906688201901  0.4200466013066020  0.4753820995201803
  0.0618628465060293  0.9194660254633875 -0.0248649402235711
  0.5619512977181345  0.4201220953227576  0.9756321315533795
 
  0.00000000E+00  0.00000000E+00  0.00000000E+00
  0.00000000E+00  0.00000000E+00  0.00000000E+00
  0.00000000E+00  0.00000000E+00  0.00000000E+00
  0.00000000E+00  0.00000000E+00  0.00000000E+00
  0.00000000E+00  0.00000000E+00  0.00000000E+00
  0.00000000E+00  0.00000000E+00  0.00000000E+00
  0.00000000E+00  0.00000000E+00  0.00000000E+00
  0.00000000E+00  0.00000000E+00  0.00000000E+00
  0.00000000E+00  0.00000000E+00  0.00000000E+00
  0.00000000E+00  0.00000000E+00  0.00000000E+00
  0.00000000E+00  0.00000000E+00  0.00000000E+00
  0.00000000E+00  0.00000000E+00  0.00000000E+00
  0.00000000E+00  0.00000000E+00  0.00000000E+00
  0.00000000E+00  0.00000000E+00  0.00000000E+00
  0.00000000E+00  0.00000000E+00  0.00000000E+00
  0.00000000E+00  0.00000000E+00  0.00000000E+00
  0.00000000E+00  0.00000000E+00  0.00000000E+00
  0.00000000E+00  0.00000000E+00  0.00000000E+00
  0.00000000E+00  0.00000000E+00  0.00000000E+00
  0.00000000E+00  0.00000000E+00  0.00000000E+00
