Poscar file generated with pyiron       
   1.00000000000000     
     8.8512815558162501    0.4409395906173783   -0.3300355160351466
    -0.0630745031132550    8.8162837544301098    0.4460070660443765
     0.4877011487939941   -0.4278726305973897   12.2698090666796347
   Cs   I    Pb
     4    12     4
Direct
  0.0835691895222008  0.3763064772057181  0.2066860990929505
  0.0731741423582034  0.3757306543775012  0.7235608726728530
  0.5719430519652525  0.8781952130474135  0.7103403248714300
  0.5720060056714369  0.8897619618447741  0.2306482751617865
  0.3328423083875772  0.1212218869693402  0.4620422110326771
  0.8055066368516096  0.6485504778328726  0.4757055432019702
  0.8309061099593603  0.1408780466814465  0.5353148298612859
  0.3094052763837759  0.6216385919167059  0.3992075542944570
  0.8557209579978604  0.6002133620156274  0.9610700962753032
  0.3079809194478351  0.1481249929423473  0.9724977645830142
  0.3510186960665135  0.6479861289182886  0.0348004652905674
  0.8096966393013382  0.1089258628614081  0.9019111977130989
  0.1447128775749763  0.8150853109981421  0.7169572512517384
  0.0020793401959075  0.9411072230471913  0.2158078328275038
  0.6504222568080524  0.3214834983336010  0.2197011545319623
  0.5030134247181771  0.4439516698169041  0.7184893822645535
  0.0711696665627770  0.8819001577401295  0.4669856426470316
  0.5719472229530205  0.3836457310521109  0.4684370431417670
  0.0784119514164075  0.8757269431281700 -0.0328204379468790
  0.5791304997356913  0.3777846403958862  0.9683279183176554
 
  0.00000000E+00  0.00000000E+00  0.00000000E+00
  0.00000000E+00  0.00000000E+00  0.00000000E+00
  0.00000000E+00  0.00000000E+00  0.00000000E+00
  0.00000000E+00  0.00000000E+00  0.00000000E+00
  0.00000000E+00  0.00000000E+00  0.00000000E+00
  0.00000000E+00  0.00000000E+00  0.00000000E+00
  0.00000000E+00  0.00000000E+00  0.00000000E+00
  0.00000000E+00  0.00000000E+00  0.00000000E+00
  0.00000000E+00  0.00000000E+00  0.00000000E+00
  0.00000000E+00  0.00000000E+00  0.00000000E+00
  0.00000000E+00  0.00000000E+00  0.00000000E+00
  0.00000000E+00  0.00000000E+00  0.00000000E+00
  0.00000000E+00  0.00000000E+00  0.00000000E+00
  0.00000000E+00  0.00000000E+00  0.00000000E+00
  0.00000000E+00  0.00000000E+00  0.00000000E+00
  0.00000000E+00  0.00000000E+00  0.00000000E+00
  0.00000000E+00  0.00000000E+00  0.00000000E+00
  0.00000000E+00  0.00000000E+00  0.00000000E+00
  0.00000000E+00  0.00000000E+00  0.00000000E+00
  0.00000000E+00  0.00000000E+00  0.00000000E+00
