Poscar file generated with pyiron       
   1.00000000000000     
     8.4529404426053372    0.1806816846247183   -0.1591006852191942
    -0.1882312704024588    8.9729360318498443    0.5153007579963144
     0.2516374084868156   -0.7067316004722014   12.4457962825490345
   Cs   I    Pb
     4    12     4
Direct
  0.0894718417294829  0.4641229257854086  0.2135999356295448
  0.0315670566903374  0.3048302805566374  0.7136025752799366
  0.5885261417786826  0.8049276010544349  0.7131537723316977
  0.5320349129551790  0.9647805851502060  0.2126442030209142
  0.2483988101802417  0.1901189003331337  0.4230695359417223
  0.8737670363663291  0.5785466601302390  0.5041864909879311
  0.7477772518840783  0.0787058229295116  0.5028298167707614
  0.3738737550377118  0.6910314480309802  0.4235094270000211
  0.8720494293051634  0.5795166090893002  0.9227520355051513
  0.2470660211541357  0.1907529790811250  0.0035265245647570
  0.3721646679002682  0.6906660409999887  0.0031177394579437
  0.7469906166080310  0.0792305442915519  0.9234153640877990
  0.1427851665335790  0.8896352145475281  0.7135628112566785
  0.9768146683259100  0.8789488383941411  0.2135363525025857
  0.6433644728792064  0.3822944781851981  0.2132515020011265
  0.4771542265054475  0.3885037308780630  0.7132333658551511
  0.0606508207916163  0.8845177202072468  0.4635352236897632
  0.5607750395501269  0.3847946737926537  0.4633360413998243
  0.0595354832163155  0.8849649510126026 -0.0363982831864899
  0.5597934921252850  0.3851005702043241  0.9633144335886258
 
  0.00000000E+00  0.00000000E+00  0.00000000E+00
  0.00000000E+00  0.00000000E+00  0.00000000E+00
  0.00000000E+00  0.00000000E+00  0.00000000E+00
  0.00000000E+00  0.00000000E+00  0.00000000E+00
  0.00000000E+00  0.00000000E+00  0.00000000E+00
  0.00000000E+00  0.00000000E+00  0.00000000E+00
  0.00000000E+00  0.00000000E+00  0.00000000E+00
  0.00000000E+00  0.00000000E+00  0.00000000E+00
  0.00000000E+00  0.00000000E+00  0.00000000E+00
  0.00000000E+00  0.00000000E+00  0.00000000E+00
  0.00000000E+00  0.00000000E+00  0.00000000E+00
  0.00000000E+00  0.00000000E+00  0.00000000E+00
  0.00000000E+00  0.00000000E+00  0.00000000E+00
  0.00000000E+00  0.00000000E+00  0.00000000E+00
  0.00000000E+00  0.00000000E+00  0.00000000E+00
  0.00000000E+00  0.00000000E+00  0.00000000E+00
  0.00000000E+00  0.00000000E+00  0.00000000E+00
  0.00000000E+00  0.00000000E+00  0.00000000E+00
  0.00000000E+00  0.00000000E+00  0.00000000E+00
  0.00000000E+00  0.00000000E+00  0.00000000E+00
