Poscar file generated with pyiron       
   1.00000000000000     
     8.7730652322102465   -0.0707333502983647   -0.2081528067288942
     0.0611720788775822    8.5793521915647322    0.3425038559428817
     0.2559574130414213   -0.3358946505808021   12.7652659044502634
   Cs   I    Pb
     4    12     4
Direct
  0.0583552986383079  0.3574637985110778  0.2075315588157491
  0.0871350556822631  0.3472950399324438  0.7071605252196552
  0.5628130138710975  0.8454238494368795  0.7107244260418736
  0.5907719033169513  0.8419584971559873  0.2114674762356249
  0.3936963939448401  0.0286094461509273  0.4468506816882855
  0.7645138195138761  0.6628019771692789  0.4757649356755085
  0.8909607291498597  0.1654756058481090  0.4658068871834444
  0.2621117351735602  0.5317200465073636  0.4486101459087020
  0.8860112197403937  0.5324003137329790  0.9422550388486390
  0.2541246348953506  0.1695117818138954  0.9726782834244443
  0.3878951223630482  0.6665507378039389  0.9705576511792625
  0.7558569965855120  0.0293432438953051  0.9514946915402575
  0.1051555854573196  0.8565261317966166  0.7092013541766056
  0.0466115055661388  0.8434081918796279  0.2091076551654081
  0.6011444882633181  0.3545627384868261  0.2094634193645177
  0.5446071782997308  0.3392126422546886  0.7094909227729003
  0.0770514596771930  0.8493033781775954  0.4593892452801422
  0.5754672111193249  0.3474023798631665  0.4596854375398180
  0.0732665357528493  0.8495676744549825  0.9592068886783208
  0.5720228233663965  0.3475574082289680  0.9595162876324775
 
  0.00000000E+00  0.00000000E+00  0.00000000E+00
  0.00000000E+00  0.00000000E+00  0.00000000E+00
  0.00000000E+00  0.00000000E+00  0.00000000E+00
  0.00000000E+00  0.00000000E+00  0.00000000E+00
  0.00000000E+00  0.00000000E+00  0.00000000E+00
  0.00000000E+00  0.00000000E+00  0.00000000E+00
  0.00000000E+00  0.00000000E+00  0.00000000E+00
  0.00000000E+00  0.00000000E+00  0.00000000E+00
  0.00000000E+00  0.00000000E+00  0.00000000E+00
  0.00000000E+00  0.00000000E+00  0.00000000E+00
  0.00000000E+00  0.00000000E+00  0.00000000E+00
  0.00000000E+00  0.00000000E+00  0.00000000E+00
  0.00000000E+00  0.00000000E+00  0.00000000E+00
  0.00000000E+00  0.00000000E+00  0.00000000E+00
  0.00000000E+00  0.00000000E+00  0.00000000E+00
  0.00000000E+00  0.00000000E+00  0.00000000E+00
  0.00000000E+00  0.00000000E+00  0.00000000E+00
  0.00000000E+00  0.00000000E+00  0.00000000E+00
  0.00000000E+00  0.00000000E+00  0.00000000E+00
  0.00000000E+00  0.00000000E+00  0.00000000E+00
