Poscar file generated with pyiron       
   1.00000000000000     
     8.3592158190014647    0.0410828749782617   -0.2037069964279771
    -0.0391772743336566    8.9999194279514221    0.4747370940116550
     0.3099789188618771   -0.6539802782322339   12.4806538978380814
   Cs   I    Pb
     4    12     4
Direct
  0.1356238821114326  0.3000511657753046  0.2089575522652306
  0.0708173184917912  0.4699660210270630  0.7088472658751497
  0.6365405922101547  0.9696957361808390  0.7085913099160260
  0.5705123446395441  0.7996585250864106  0.2085986227119798
  0.4222715810598407  0.0750026359827303  0.4195745258229273
  0.7852314566930889  0.6939211961233251  0.4978357529144780
  0.9225478806402378  0.1943143908481284  0.4973751097094972
  0.2854884767552265  0.5751959601437066  0.4202132581619325
  0.7843921443339046  0.6943507146262052  0.9197360916411280
  0.4214321069866027  0.0752990256692008  0.9979046289598438
  0.2841687006275256  0.5754835935020333 -0.0025434946079968
  0.9214051862458870  0.1947195986197717  0.9202304605362550
  0.1835036922125140  0.8843388471766921  0.7087613052201307
  0.0230431064524055  0.8856039990369912  0.2088133298774387
  0.6833146380070654  0.3862445718642050  0.2085763811840320
  0.5228038957535903  0.3826106405102860  0.7086094270118013
  0.1037507351490507  0.8844513707719271  0.4586838522158795
  0.6039723571389224  0.3843484327398669  0.4585828812278674
  0.1028923325076419  0.8852349118872784  0.9587181467501924
  0.6025438127908495  0.3850039407583191  0.9585454547870055
 
  0.00000000E+00  0.00000000E+00  0.00000000E+00
  0.00000000E+00  0.00000000E+00  0.00000000E+00
  0.00000000E+00  0.00000000E+00  0.00000000E+00
  0.00000000E+00  0.00000000E+00  0.00000000E+00
  0.00000000E+00  0.00000000E+00  0.00000000E+00
  0.00000000E+00  0.00000000E+00  0.00000000E+00
  0.00000000E+00  0.00000000E+00  0.00000000E+00
  0.00000000E+00  0.00000000E+00  0.00000000E+00
  0.00000000E+00  0.00000000E+00  0.00000000E+00
  0.00000000E+00  0.00000000E+00  0.00000000E+00
  0.00000000E+00  0.00000000E+00  0.00000000E+00
  0.00000000E+00  0.00000000E+00  0.00000000E+00
  0.00000000E+00  0.00000000E+00  0.00000000E+00
  0.00000000E+00  0.00000000E+00  0.00000000E+00
  0.00000000E+00  0.00000000E+00  0.00000000E+00
  0.00000000E+00  0.00000000E+00  0.00000000E+00
  0.00000000E+00  0.00000000E+00  0.00000000E+00
  0.00000000E+00  0.00000000E+00  0.00000000E+00
  0.00000000E+00  0.00000000E+00  0.00000000E+00
  0.00000000E+00  0.00000000E+00  0.00000000E+00
