Poscar file generated with pyiron       
   1.00000000000000     
     8.3919193065335413    0.0253676367096462   -0.2122277173508113
    -0.0222469561651628    8.9944896044882583    0.3151378066725813
     0.3112373064695828   -0.4383993205205712   12.4863783744244898
   Cs   I    Pb
     4    12     4
Direct
  0.0999697025625738  0.4353464931546928  0.2062375154303218
  0.0388293596894421  0.2689582559041070  0.7065927744292584
  0.6011673699452631  0.7687513083107155  0.7067004313645457
  0.5395343583193108  0.9352733431531882  0.2065691990403334
  0.2527233235135141  0.1599120962295858  0.4167181108093039
  0.8860223397857208  0.5431200424697431  0.4959647438231497
  0.7530146016186781  0.0430473989995071  0.4953051277751138
  0.3862343578116976  0.6599314531846673  0.4171122072506988
  0.8870839472357861  0.5438632479930493  0.9170346898195975
  0.2531222751711649  0.1614835005840443 -0.0042092661272528
  0.3868026333499096  0.6616159166178827 -0.0049753478379285
  0.7528340247692615  0.0440234203194300  0.9178312837248921
  0.1510893006532482  0.8550478892388019  0.7064569697926164
 -0.0104055691725418  0.8498798395180031  0.2063605630734287
  0.6495023845482712  0.3514838379898231  0.2066506071110763
  0.4891694242015787  0.3530860115010181  0.7066015212725910
  0.0701996108333386  0.8511608281941928  0.4567624988891037
  0.5693154294076811  0.3510835325135432  0.4567846143641996
  0.0698646789381325  0.8529537977539217  0.9566633084056578
  0.5700112055026904  0.3529523949500069  0.9566675189869646
 
  0.00000000E+00  0.00000000E+00  0.00000000E+00
  0.00000000E+00  0.00000000E+00  0.00000000E+00
  0.00000000E+00  0.00000000E+00  0.00000000E+00
  0.00000000E+00  0.00000000E+00  0.00000000E+00
  0.00000000E+00  0.00000000E+00  0.00000000E+00
  0.00000000E+00  0.00000000E+00  0.00000000E+00
  0.00000000E+00  0.00000000E+00  0.00000000E+00
  0.00000000E+00  0.00000000E+00  0.00000000E+00
  0.00000000E+00  0.00000000E+00  0.00000000E+00
  0.00000000E+00  0.00000000E+00  0.00000000E+00
  0.00000000E+00  0.00000000E+00  0.00000000E+00
  0.00000000E+00  0.00000000E+00  0.00000000E+00
  0.00000000E+00  0.00000000E+00  0.00000000E+00
  0.00000000E+00  0.00000000E+00  0.00000000E+00
  0.00000000E+00  0.00000000E+00  0.00000000E+00
  0.00000000E+00  0.00000000E+00  0.00000000E+00
  0.00000000E+00  0.00000000E+00  0.00000000E+00
  0.00000000E+00  0.00000000E+00  0.00000000E+00
  0.00000000E+00  0.00000000E+00  0.00000000E+00
  0.00000000E+00  0.00000000E+00  0.00000000E+00
