Poscar file generated with pyiron       
   1.00000000000000     
     8.8301626452392270   -0.2440230051069286   -0.1984514954968650
    -0.0517487117211354    8.8233020704234804    0.2153843761402833
     0.2247432099272262   -0.2124658269348425   12.3553584892017643
   Cs   I    Pb
     4    12     4
Direct
  0.0963975107043776  0.3149600341638883  0.2037805143697095
  0.0694396448445425  0.3472179963353556  0.7043446352298877
  0.5706788348351853  0.8513120558996617  0.7131957841443743
  0.5928131072545904  0.8106329748669912  0.1956723937899473
  0.3721314068976712  0.0424004247348708  0.3956043664882297
  0.7904278105563962  0.6236862099346202  0.5104193453990190
  0.8754466831448706  0.1256293757124080  0.4577436007961578
  0.2890935807665272  0.5390264724577144  0.4505762434297088
  0.8161481531811794  0.5973016348046170  0.8888205449084098
  0.3489432895007073  0.0638803951510470  0.0181047826315766
  0.3155755862744757  0.5632836249937051  0.9582025276541342
  0.8502360192580714  0.0982904110067530  0.9504942431714877
  0.1419971154437035  0.8962900144096515  0.7040079163266669
  0.0218815712087196  0.7653101218609533  0.2038785733444175
  0.6535985251839607  0.3836550913854307  0.2034335365181707
  0.5117084493339138  0.2783958423006196  0.7040660112641047
  0.0822610309550112  0.8322634497924749  0.4538524577712875
  0.5823420078172791  0.3322079958070381  0.4538294910308732
  0.0823930248240690  0.8303619171888980  0.9541331546766437
  0.5828136230604076  0.3305524555505323  0.9538748065665040
 
  0.00000000E+00  0.00000000E+00  0.00000000E+00
  0.00000000E+00  0.00000000E+00  0.00000000E+00
  0.00000000E+00  0.00000000E+00  0.00000000E+00
  0.00000000E+00  0.00000000E+00  0.00000000E+00
  0.00000000E+00  0.00000000E+00  0.00000000E+00
  0.00000000E+00  0.00000000E+00  0.00000000E+00
  0.00000000E+00  0.00000000E+00  0.00000000E+00
  0.00000000E+00  0.00000000E+00  0.00000000E+00
  0.00000000E+00  0.00000000E+00  0.00000000E+00
  0.00000000E+00  0.00000000E+00  0.00000000E+00
  0.00000000E+00  0.00000000E+00  0.00000000E+00
  0.00000000E+00  0.00000000E+00  0.00000000E+00
  0.00000000E+00  0.00000000E+00  0.00000000E+00
  0.00000000E+00  0.00000000E+00  0.00000000E+00
  0.00000000E+00  0.00000000E+00  0.00000000E+00
  0.00000000E+00  0.00000000E+00  0.00000000E+00
  0.00000000E+00  0.00000000E+00  0.00000000E+00
  0.00000000E+00  0.00000000E+00  0.00000000E+00
  0.00000000E+00  0.00000000E+00  0.00000000E+00
  0.00000000E+00  0.00000000E+00  0.00000000E+00
