Poscar file generated with pyiron       
   1.00000000000000     
     8.8970071957302803    0.1432188730717423    0.0136012060290643
     0.1663181458770103    8.7894434993893835    0.4837157847596169
     0.0492574395969673   -0.7763959959259956   12.2573006490573420
   Cs   I    Pb
     4    12     4
Direct
  0.0822873733857508  0.3909493454850899  0.2279731824742758
  0.0634342780485799  0.3662774938386352  0.7244386577407663
  0.5831947112422448  0.8496767266065054  0.7224268163375432
  0.5617234093589146  0.9077977682302855  0.2162518496424967
  0.3025078944211609  0.1508958222946345  0.4524355072325233
  0.8488620588397362  0.6035084500939142  0.4947301612205298
  0.8054046174746189  0.1098452202232067  0.5376647127961264
  0.3475770673664619  0.6503242046141122  0.4094373064946674
  0.8322097970622427  0.6168757139893642  0.9511238331518306
  0.3057815086021823  0.1443741062698095 -0.0052004289978270
  0.3299252198910114  0.6402062524042803  0.0386817630393596
  0.8074306668686503  0.1152099567387016  0.9079045938640170
  0.1546172147661721  0.8293661309293150  0.7232944557338508
  0.9902290750120872  0.9276481063767954  0.2242977406254997
  0.6564086994582593  0.3349589683483319  0.2221122433744808
  0.4888320522134629  0.4226127524325548  0.7231863060337432
  0.0743269828468214  0.8780120759220404  0.4734739323390026
  0.5743940187853783  0.3781502763878697  0.4728470904350193
  0.0705507812801704  0.8795356200343601 -0.0265862172034976
  0.5706823437335211  0.3795482781185689  0.9728540754674635
 
  0.00000000E+00  0.00000000E+00  0.00000000E+00
  0.00000000E+00  0.00000000E+00  0.00000000E+00
  0.00000000E+00  0.00000000E+00  0.00000000E+00
  0.00000000E+00  0.00000000E+00  0.00000000E+00
  0.00000000E+00  0.00000000E+00  0.00000000E+00
  0.00000000E+00  0.00000000E+00  0.00000000E+00
  0.00000000E+00  0.00000000E+00  0.00000000E+00
  0.00000000E+00  0.00000000E+00  0.00000000E+00
  0.00000000E+00  0.00000000E+00  0.00000000E+00
  0.00000000E+00  0.00000000E+00  0.00000000E+00
  0.00000000E+00  0.00000000E+00  0.00000000E+00
  0.00000000E+00  0.00000000E+00  0.00000000E+00
  0.00000000E+00  0.00000000E+00  0.00000000E+00
  0.00000000E+00  0.00000000E+00  0.00000000E+00
  0.00000000E+00  0.00000000E+00  0.00000000E+00
  0.00000000E+00  0.00000000E+00  0.00000000E+00
  0.00000000E+00  0.00000000E+00  0.00000000E+00
  0.00000000E+00  0.00000000E+00  0.00000000E+00
  0.00000000E+00  0.00000000E+00  0.00000000E+00
  0.00000000E+00  0.00000000E+00  0.00000000E+00
