Poscar file generated with pyiron       
   1.00000000000000     
     8.4262044316312146   -0.0426281761275774   -0.1722735220270090
     0.0517458601522428    8.9975531144331775    0.2806733593454924
     0.2626447271589321   -0.3896804729106874   12.4818383998104991
   Cs   I    Pb
     4    12     4
Direct
  0.0934378482890965  0.3304427969665308  0.2101115927872339
  0.0349055884901187  0.4930915427823084  0.7101222865761706
  0.5939456670804681  0.9933200689794055  0.7093529971329565
  0.5343615182466357  0.8308602272479125  0.2095483349818431
  0.3796295625816480  0.1051030194732785  0.4201767014729947
  0.7503598183899562  0.7189504393456483  0.4993422113847941
  0.8798465065639539  0.2193260475396571  0.4994950854342961
  0.2505568821894120  0.6052306561793780  0.4201309222536976
  0.7486655047884032  0.7192104318034055  0.9200692585134819
  0.3782088740896867  0.1049339670476556 -0.0007578182879516
  0.2482983217363424  0.6048688453574962 -0.0002736877010994
  0.8784969208361187  0.2194149804390457  0.9204885723930248
  0.1458260294076122  0.9088088625792610  0.7098803574002097
  0.9822547896120505  0.9151996409692214  0.2100156459087720
  0.6455039463546902  0.4153365722919345  0.2094503382218104
  0.4827900858568886  0.4087734418710028  0.7095524862165246
  0.0649769615570030  0.9117132186317051  0.4599660046454508
  0.5651432720786052  0.4118473541088432  0.4596508981347164
  0.0633183522399710  0.9118628049853932 -0.0400021224577202
  0.5633992994119338  0.4119671625224940  0.9596641515179553
 
  0.00000000E+00  0.00000000E+00  0.00000000E+00
  0.00000000E+00  0.00000000E+00  0.00000000E+00
  0.00000000E+00  0.00000000E+00  0.00000000E+00
  0.00000000E+00  0.00000000E+00  0.00000000E+00
  0.00000000E+00  0.00000000E+00  0.00000000E+00
  0.00000000E+00  0.00000000E+00  0.00000000E+00
  0.00000000E+00  0.00000000E+00  0.00000000E+00
  0.00000000E+00  0.00000000E+00  0.00000000E+00
  0.00000000E+00  0.00000000E+00  0.00000000E+00
  0.00000000E+00  0.00000000E+00  0.00000000E+00
  0.00000000E+00  0.00000000E+00  0.00000000E+00
  0.00000000E+00  0.00000000E+00  0.00000000E+00
  0.00000000E+00  0.00000000E+00  0.00000000E+00
  0.00000000E+00  0.00000000E+00  0.00000000E+00
  0.00000000E+00  0.00000000E+00  0.00000000E+00
  0.00000000E+00  0.00000000E+00  0.00000000E+00
  0.00000000E+00  0.00000000E+00  0.00000000E+00
  0.00000000E+00  0.00000000E+00  0.00000000E+00
  0.00000000E+00  0.00000000E+00  0.00000000E+00
  0.00000000E+00  0.00000000E+00  0.00000000E+00
