Poscar file generated with pyiron       
   1.00000000000000     
     8.3983344621195872   -0.0128455503510387   -0.2818032880777127
     0.0344921258916696    8.9916441617761151    0.5722009529115027
     0.4192799201339223   -0.7871913928091607   12.4700052819664293
   Cs   I    Pb
     4    12     4
Direct
  0.0838424283489550  0.4620995312836318  0.2075917883769335
  0.0220791107515564  0.2960368458829921  0.7074265789745999
  0.5837493710290795  0.7959574639843330  0.7079105352381299
  0.5220036320857905  0.9621932590918454  0.2079538518752014
  0.2360622741950398  0.1872686771958926  0.4184905691009405
  0.8687188877769461  0.5708804784998538  0.4969843669610987
  0.7358678349722111  0.0703164962341240  0.4971149031660960
  0.3688243133403932  0.6869134519615872  0.4182721918368498
  0.8698557556701743  0.5707272714922845  0.9184154106468435
  0.2366723336324687  0.1872778483312612 -0.0030444119215773
  0.3700715323948107  0.6876773454660036 -0.0028414826495329
  0.7369796491652297  0.0711475906969190  0.9183949096211546
  0.1340173527584831  0.8809970579940485  0.7077188549624497
  0.9717536444547240  0.8768167949412892  0.2077888272346709
  0.6339173302114133  0.3767615480487527  0.2078968370945319
  0.4716004657764070  0.3812963579994751  0.7079154483521205
  0.0526336450088758  0.8788028355994925  0.4577958838827770
  0.5525118333962737  0.3787133056860943  0.4579144115407988
  0.0532297325064648  0.8790380566883177  0.9577928611882017
  0.5531887468257166  0.3791812965287374  0.9578913403868440
 
  0.00000000E+00  0.00000000E+00  0.00000000E+00
  0.00000000E+00  0.00000000E+00  0.00000000E+00
  0.00000000E+00  0.00000000E+00  0.00000000E+00
  0.00000000E+00  0.00000000E+00  0.00000000E+00
  0.00000000E+00  0.00000000E+00  0.00000000E+00
  0.00000000E+00  0.00000000E+00  0.00000000E+00
  0.00000000E+00  0.00000000E+00  0.00000000E+00
  0.00000000E+00  0.00000000E+00  0.00000000E+00
  0.00000000E+00  0.00000000E+00  0.00000000E+00
  0.00000000E+00  0.00000000E+00  0.00000000E+00
  0.00000000E+00  0.00000000E+00  0.00000000E+00
  0.00000000E+00  0.00000000E+00  0.00000000E+00
  0.00000000E+00  0.00000000E+00  0.00000000E+00
  0.00000000E+00  0.00000000E+00  0.00000000E+00
  0.00000000E+00  0.00000000E+00  0.00000000E+00
  0.00000000E+00  0.00000000E+00  0.00000000E+00
  0.00000000E+00  0.00000000E+00  0.00000000E+00
  0.00000000E+00  0.00000000E+00  0.00000000E+00
  0.00000000E+00  0.00000000E+00  0.00000000E+00
  0.00000000E+00  0.00000000E+00  0.00000000E+00
