Poscar file generated with pyiron       
   1.00000000000000     
     8.4276514544895420    0.1181982785364823   -0.1321914654271761
    -0.1253026442297720    8.9938495355082200    0.1814454424847548
     0.2009291095674479   -0.2552350503749524   12.4787323817536837
   Cs   I    Pb
     4    12     4
Direct
  0.0717738340384485  0.3481338512294482  0.2267440319662769
  0.0140972344997151  0.5104274263928894  0.7267024635923723
  0.5734763879830590  0.0099432567397684  0.7262506700588995
  0.5142413805161500  0.8481407711154590  0.2260780239843341
  0.3586215138059948  0.1220306879004906  0.4363395112741771
  0.7294962608651903  0.7358497473954506  0.5162224829348435
  0.8585542088174908  0.2357719478531452  0.5158255470383392
  0.2291744638147037  0.6215906437004517  0.4372337994100849
  0.7289989978756295  0.7360420303914088  0.9364439309511292
  0.3575384635765448  0.1224400820931655  0.0164345727598932
  0.2292276331367887  0.6222281983670743  0.0162364006647599
  0.8574637577668114  0.2357534957673798  0.9371177726329718
  0.1261293705586113  0.9266355857529288  0.7267598670190387
  0.9623414641900084  0.9309659319237134  0.2267353667855845
  0.6253113915106705  0.4331640255368044  0.2263886582426906
  0.4611355340258843  0.4249577569622221  0.7262896597077337
  0.0443522986210252  0.9289148520214874  0.4766215918934412
  0.5435935669426327  0.4288794939917396  0.4765103446512722
  0.0434972161487038  0.9292666556022404  0.9765301080861558
  0.5431850876892405  0.4291742921951631  0.9764667238061591
 
  0.00000000E+00  0.00000000E+00  0.00000000E+00
  0.00000000E+00  0.00000000E+00  0.00000000E+00
  0.00000000E+00  0.00000000E+00  0.00000000E+00
  0.00000000E+00  0.00000000E+00  0.00000000E+00
  0.00000000E+00  0.00000000E+00  0.00000000E+00
  0.00000000E+00  0.00000000E+00  0.00000000E+00
  0.00000000E+00  0.00000000E+00  0.00000000E+00
  0.00000000E+00  0.00000000E+00  0.00000000E+00
  0.00000000E+00  0.00000000E+00  0.00000000E+00
  0.00000000E+00  0.00000000E+00  0.00000000E+00
  0.00000000E+00  0.00000000E+00  0.00000000E+00
  0.00000000E+00  0.00000000E+00  0.00000000E+00
  0.00000000E+00  0.00000000E+00  0.00000000E+00
  0.00000000E+00  0.00000000E+00  0.00000000E+00
  0.00000000E+00  0.00000000E+00  0.00000000E+00
  0.00000000E+00  0.00000000E+00  0.00000000E+00
  0.00000000E+00  0.00000000E+00  0.00000000E+00
  0.00000000E+00  0.00000000E+00  0.00000000E+00
  0.00000000E+00  0.00000000E+00  0.00000000E+00
  0.00000000E+00  0.00000000E+00  0.00000000E+00
