Poscar file generated with pyiron       
   1.00000000000000     
     8.4362150723085332    0.1002954950066353   -0.2049738688608211
    -0.0927739478282512    8.9874861192981577    0.3811758695969643
     0.3070768333803233   -0.5184125400098362   12.4572358168879909
   Cs   I    Pb
     4    12     4
Direct
  0.1143932717214968  0.3299600616144581  0.2091353632493299
  0.0567897745220352  0.4912071536532214  0.7091219471865721
  0.6148818061083746  0.9906800883908924  0.7077325285745714
  0.5562011743270772  0.8297409356595811  0.2078709333556968
  0.4011415095474929  0.1033411679086526  0.4186182206727121
  0.7729289124015858  0.7168805102126441  0.4980762813703805
  0.9012557302228066  0.2177882994985410  0.4980030031961370
  0.2727909536401521  0.6039164258134232  0.4191270911419392
  0.7701634714653492  0.7169827731437072  0.9183568164914478
  0.3976790004357754  0.1039570107880893 -0.0014985840683152
  0.2702321082819024  0.6037328452353713 -0.0015835996638271
  0.8977577202213214  0.2166926806346572  0.9185466594463526
  0.1674150334720918  0.9073595533522737  0.7088512787558222
  0.0033356518855744  0.9139163882728399  0.2088412209271613
  0.6672436976277691  0.4140595957889341  0.2082564062387359
  0.5035431539070654  0.4061970424126305  0.7082363951573045
  0.0868388416154014  0.9105989098573304  0.4588094129543394
  0.5867794779750306  0.4104404061895592  0.4583570270395632
  0.0839001999181370  0.9103878448799472  0.9588271893605814
  0.5840649611808401  0.4101878712777071  0.9583509252521346
 
  0.00000000E+00  0.00000000E+00  0.00000000E+00
  0.00000000E+00  0.00000000E+00  0.00000000E+00
  0.00000000E+00  0.00000000E+00  0.00000000E+00
  0.00000000E+00  0.00000000E+00  0.00000000E+00
  0.00000000E+00  0.00000000E+00  0.00000000E+00
  0.00000000E+00  0.00000000E+00  0.00000000E+00
  0.00000000E+00  0.00000000E+00  0.00000000E+00
  0.00000000E+00  0.00000000E+00  0.00000000E+00
  0.00000000E+00  0.00000000E+00  0.00000000E+00
  0.00000000E+00  0.00000000E+00  0.00000000E+00
  0.00000000E+00  0.00000000E+00  0.00000000E+00
  0.00000000E+00  0.00000000E+00  0.00000000E+00
  0.00000000E+00  0.00000000E+00  0.00000000E+00
  0.00000000E+00  0.00000000E+00  0.00000000E+00
  0.00000000E+00  0.00000000E+00  0.00000000E+00
  0.00000000E+00  0.00000000E+00  0.00000000E+00
  0.00000000E+00  0.00000000E+00  0.00000000E+00
  0.00000000E+00  0.00000000E+00  0.00000000E+00
  0.00000000E+00  0.00000000E+00  0.00000000E+00
  0.00000000E+00  0.00000000E+00  0.00000000E+00
