Poscar file generated with pyiron       
   1.00000000000000     
     8.4363548591391542    0.0130723572269698   -0.1600706807491391
    -0.0210136549915177    8.9938207389666989    0.2484074530102681
     0.2403264184030141   -0.3452633772264528   12.4708421173405437
   Cs   I    Pb
     4    12     4
Direct
  0.0839307060198295  0.3420683628604749  0.2300674702852205
  0.0261480191328590  0.5036794400748477  0.7297167704225501
  0.5840893158858333  0.0039177789955593  0.7297201545130604
  0.5263149528859493  0.8421295907122912  0.2300699852813156
  0.3690768084526723  0.1162162978050731  0.4400438929893680
  0.7408085987883521  0.7296176606461248  0.5194971872203219
  0.8690751418197910  0.2296828245808477  0.5195881187937371
  0.2407544487428656  0.6161128518722906  0.4401057037800069
  0.7409445788465088  0.7296831837328239  0.9399509317570947
  0.3693111853544253  0.1159907967725548  0.0198303600403541
  0.2410950945425068  0.6163024895701771  0.0195916855235585
  0.8692715825297448  0.2298419755678792  0.9400657694370209
  0.1370526589545946  0.9195998322284381  0.7296351995340303
  0.9735390890836718  0.9259803421575664  0.2296637332278630
  0.6366796255098026  0.4266046986324964  0.2296084607074952
  0.4729026157988360  0.4196102342344734  0.7296628355052959
  0.0548971673195189  0.9228192004348421  0.4796364047379806
  0.5549757481466258  0.4228492950744490  0.4795888345028111
  0.0551003908392942  0.9229615823203726  0.9795604547212053
  0.5548475456995278  0.4228406452303321  0.9795664392244319
 
  0.00000000E+00  0.00000000E+00  0.00000000E+00
  0.00000000E+00  0.00000000E+00  0.00000000E+00
  0.00000000E+00  0.00000000E+00  0.00000000E+00
  0.00000000E+00  0.00000000E+00  0.00000000E+00
  0.00000000E+00  0.00000000E+00  0.00000000E+00
  0.00000000E+00  0.00000000E+00  0.00000000E+00
  0.00000000E+00  0.00000000E+00  0.00000000E+00
  0.00000000E+00  0.00000000E+00  0.00000000E+00
  0.00000000E+00  0.00000000E+00  0.00000000E+00
  0.00000000E+00  0.00000000E+00  0.00000000E+00
  0.00000000E+00  0.00000000E+00  0.00000000E+00
  0.00000000E+00  0.00000000E+00  0.00000000E+00
  0.00000000E+00  0.00000000E+00  0.00000000E+00
  0.00000000E+00  0.00000000E+00  0.00000000E+00
  0.00000000E+00  0.00000000E+00  0.00000000E+00
  0.00000000E+00  0.00000000E+00  0.00000000E+00
  0.00000000E+00  0.00000000E+00  0.00000000E+00
  0.00000000E+00  0.00000000E+00  0.00000000E+00
  0.00000000E+00  0.00000000E+00  0.00000000E+00
  0.00000000E+00  0.00000000E+00  0.00000000E+00
