SYSTEM=ref_RPA #jobname
PREC=Normal
ALGO=ACFDTR
LREAL=.FALSE.
LWAVE=.FALSE.
LORBIT=11
ISMEAR=0
LASPH=.TRUE.
EDIFF=1e-08
ENCUT=400
SIGMA=0.05
LCHARG=.FALSE.
ISPIN=1
IVDW=0
NCORE=1
NOMEGA=8
LOPTICS=.FALSE.
LPEAD=.FALSE.
PRECFOCK=FAST
NKRED=1
