SYSTEM=GO_struct_22 #jobname
PREC=Normal
ALGO=Normal
LREAL=.FALSE.
LWAVE=.FALSE.
LORBIT=11
ISMEAR=0
LASPH=.TRUE.
EDIFF=1e-05
ENCUT=600
SIGMA=0.05
LCHARG=.FALSE.
ISPIN=1
IVDW=12
IBRION=2
NSW=1000
ISIF=3
POTIM=0.5
NCORE=9
