Poscar file generated with pyiron       
   1.00000000000000     
     8.2857580906845527    0.1166833728044772    1.2086167571095210
    -0.2024463253029314   14.5625592200054186   -0.1356583373519009
     0.1323817352439451    0.1514640160622766    7.8668496937074925
   Cs   I    Pb
     4    12     4
Direct
  0.4723745768018989  0.1896338997875202  0.2184072390274897
  0.9677071080824842  0.3671421548795458  0.7843395481800864
  0.9633503357244000  0.7045533005375221  0.2751621875887709
  0.4779490266683933  0.8527385464024800  0.7289748336795572
  0.2181805792759092  0.1351134302916165  0.6639749332231739
  0.2223601386124591  0.4220560279138353  0.3393895992202512
  0.6848765028601637  0.0979330512448853  0.7543482518859457
  0.7554164608793086  0.4591400842155067  0.2498606191122500
  0.4860541784580626  0.3523668740055393  0.8084937246335092
  0.9548266100619763  0.2047672674548340  0.1950307458601164
  0.7319602429634710  0.6220456927531905  0.7459953395832994
  0.7083162576744577  0.9352219724354031  0.2573961051921725
  0.1957032259186104  0.6080765367734178  0.8452010586097299
  0.2444069942438190  0.9487275923605050  0.1592292756322254
  0.0034987092035265  0.8544379833060680  0.6934592167490289
  0.4373726787324139  0.7027024825863168  0.3104230248460571
  0.9699940007432616  0.0316818877064336  0.4585893121117871
  0.9696329465871351  0.0279644904376866  0.9566098084457515
  0.4701265856132353  0.5254770374922634  0.5452783431849100
  0.4711691963429094  0.5291498088810803  0.0471729801591931
 
  0.00000000E+00  0.00000000E+00  0.00000000E+00
  0.00000000E+00  0.00000000E+00  0.00000000E+00
  0.00000000E+00  0.00000000E+00  0.00000000E+00
  0.00000000E+00  0.00000000E+00  0.00000000E+00
  0.00000000E+00  0.00000000E+00  0.00000000E+00
  0.00000000E+00  0.00000000E+00  0.00000000E+00
  0.00000000E+00  0.00000000E+00  0.00000000E+00
  0.00000000E+00  0.00000000E+00  0.00000000E+00
  0.00000000E+00  0.00000000E+00  0.00000000E+00
  0.00000000E+00  0.00000000E+00  0.00000000E+00
  0.00000000E+00  0.00000000E+00  0.00000000E+00
  0.00000000E+00  0.00000000E+00  0.00000000E+00
  0.00000000E+00  0.00000000E+00  0.00000000E+00
  0.00000000E+00  0.00000000E+00  0.00000000E+00
  0.00000000E+00  0.00000000E+00  0.00000000E+00
  0.00000000E+00  0.00000000E+00  0.00000000E+00
  0.00000000E+00  0.00000000E+00  0.00000000E+00
  0.00000000E+00  0.00000000E+00  0.00000000E+00
  0.00000000E+00  0.00000000E+00  0.00000000E+00
  0.00000000E+00  0.00000000E+00  0.00000000E+00
