Poscar file generated with pyiron       
   1.00000000000000     
     8.4686128967019503    0.1700728699333227    0.0032243499883173
    -0.2819324803484227   13.8845246663775974   -0.0620020591963867
     0.0795572460724294    0.0389561210543931    8.0167022697593833
   Cs   I    Pb
     4    12     4
Direct
  0.5065965367723668  0.1632450314681407  0.2516533603951051
  0.9936309219576274  0.3486992901127661  0.7670025679011243
  0.9922417359602014  0.6645143159599585  0.2677063823842528
  0.5058146839663799  0.8482564101017899  0.7549907965822782
  0.2612584068240518  0.0983544966134608  0.6563310028342852
  0.2369977356131461  0.4144783450573397  0.3638141433886705
  0.7453984028499100  0.1013837254261201  0.6638369248176592
  0.7524315470887041  0.4117677077662950  0.3586072754190839
  0.4873546423404387  0.3247914513541430  0.8658191285540783
  0.0054595856136337  0.1884863600655799  0.1558650121158812
  0.7562565605798325  0.5974925499085724  0.8582258864703927
  0.7439609854167898  0.9134236054338684  0.1621083801279767
  0.2412470015381659  0.6029959357874252  0.8638598055698040
  0.2588276095155989  0.9121431240528747  0.1583276672654342
  0.9990534263356936  0.8246781611446202  0.6558470639796494
  0.4972341442828019  0.6886419727189050  0.3657776722504839
  0.0022734105710499  0.0070821631626561  0.4196356864211124
  0.0035211078816402  0.0060849276661877  0.9194996893464346
  0.4951936733074382  0.5061878502720338  0.6017359203775464
  0.4950380028591049  0.5070491673025677  0.1019212815178785
 
  0.00000000E+00  0.00000000E+00  0.00000000E+00
  0.00000000E+00  0.00000000E+00  0.00000000E+00
  0.00000000E+00  0.00000000E+00  0.00000000E+00
  0.00000000E+00  0.00000000E+00  0.00000000E+00
  0.00000000E+00  0.00000000E+00  0.00000000E+00
  0.00000000E+00  0.00000000E+00  0.00000000E+00
  0.00000000E+00  0.00000000E+00  0.00000000E+00
  0.00000000E+00  0.00000000E+00  0.00000000E+00
  0.00000000E+00  0.00000000E+00  0.00000000E+00
  0.00000000E+00  0.00000000E+00  0.00000000E+00
  0.00000000E+00  0.00000000E+00  0.00000000E+00
  0.00000000E+00  0.00000000E+00  0.00000000E+00
  0.00000000E+00  0.00000000E+00  0.00000000E+00
  0.00000000E+00  0.00000000E+00  0.00000000E+00
  0.00000000E+00  0.00000000E+00  0.00000000E+00
  0.00000000E+00  0.00000000E+00  0.00000000E+00
  0.00000000E+00  0.00000000E+00  0.00000000E+00
  0.00000000E+00  0.00000000E+00  0.00000000E+00
  0.00000000E+00  0.00000000E+00  0.00000000E+00
  0.00000000E+00  0.00000000E+00  0.00000000E+00
