Poscar file generated with pyiron       
   1.00000000000000     
     8.2600836353821947   -0.1386248428291864    1.2951543815351587
     0.0891424703407271   14.6131953572878945    0.7166647843803621
     0.1344415271320268   -0.2005038991411308    7.8503340304587717
   Cs   I    Pb
     4    12     4
Direct
  0.4953687946753051  0.1890302475206187  0.2213630174503566
  0.9969627009076762  0.3617330664634174  0.7817678843955236
  0.9910452302101245  0.7048369864143387  0.2625064983950455
  0.4986847453411106  0.8458604243030923  0.7386104784893653
  0.2430716922708823  0.1313149787012403  0.6717395901428721
  0.2472546347302292  0.4196448528517830  0.3300832115223904
  0.7061060148302647  0.0925520976189875  0.7692632170799840
  0.7839810522275327  0.4575606708123490  0.2331644576228473
  0.5152566933888357  0.3495165572460033  0.7966099892797167
  0.9769059805640268  0.2010635398460000  0.2060453438899426
  0.7603025046081694  0.6182065839806222  0.7246415472379674
  0.7299018616407772  0.9328514423900655  0.2771471513643776
  0.2213647601759453  0.6028422557896341  0.8317060163419577
  0.2687719234262956  0.9473458552665331  0.1705165272792665
  0.0239180640087628  0.8515814886970646  0.7134629979573166
  0.4667338814489987  0.6989525425286260  0.2891864307883155
  0.9929015068479342  0.0281726413426693  0.4720323752987275
  0.9922640413864449  0.0252140499277920  0.9696321691485958
  0.4975295426367938  0.5221904489365287  0.5304022814653682
  0.4986306809413080  0.5256225906746844  0.0325499905429358
 
  0.00000000E+00  0.00000000E+00  0.00000000E+00
  0.00000000E+00  0.00000000E+00  0.00000000E+00
  0.00000000E+00  0.00000000E+00  0.00000000E+00
  0.00000000E+00  0.00000000E+00  0.00000000E+00
  0.00000000E+00  0.00000000E+00  0.00000000E+00
  0.00000000E+00  0.00000000E+00  0.00000000E+00
  0.00000000E+00  0.00000000E+00  0.00000000E+00
  0.00000000E+00  0.00000000E+00  0.00000000E+00
  0.00000000E+00  0.00000000E+00  0.00000000E+00
  0.00000000E+00  0.00000000E+00  0.00000000E+00
  0.00000000E+00  0.00000000E+00  0.00000000E+00
  0.00000000E+00  0.00000000E+00  0.00000000E+00
  0.00000000E+00  0.00000000E+00  0.00000000E+00
  0.00000000E+00  0.00000000E+00  0.00000000E+00
  0.00000000E+00  0.00000000E+00  0.00000000E+00
  0.00000000E+00  0.00000000E+00  0.00000000E+00
  0.00000000E+00  0.00000000E+00  0.00000000E+00
  0.00000000E+00  0.00000000E+00  0.00000000E+00
  0.00000000E+00  0.00000000E+00  0.00000000E+00
  0.00000000E+00  0.00000000E+00  0.00000000E+00
