Poscar file generated with pyiron       
   1.00000000000000     
     8.2261285898980105    0.1072186360558703    1.4455325912880521
     0.0205174798602598   14.6941078362532007   -1.2423872710754624
    -0.0510577573565773    0.0301750123275262    7.8407554935332815
   Cs   I    Pb
     4    12     4
Direct
  0.4717498904758652  0.1883891755285211  0.2980632546442915
  0.9747887998273114  0.3244154160939526  0.7628573475664098
  0.9833080140532130  0.6646903120227312  0.3071694276897325
  0.4632052140293565  0.8484127978801027  0.7544130462753247
  0.2359133928419803  0.0826062903896984  0.7284807209710571
  0.2107184676677211  0.4303048828357175  0.3327573116539121
  0.6998020579180284  0.1029996524293616  0.8352055928116665
  0.7468017691055745  0.4098784788604392  0.2260488363007917
  0.4544356148092256  0.3337995123633192  0.7708737529146145
  0.9920959038456839  0.1791050941556234  0.2904415894432731
  0.7783239059823118  0.5687713072618424  0.7512389618949172
  0.6683451607897759  0.9440684860732256  0.3100438326696731
  0.2404902717972182  0.6164054937256866  0.8489301781119686
  0.2061614601492449  0.8965709208130307  0.2123701457035691
  0.9394420739582545  0.8306384401261386  0.7453050382082814
  0.5071457376541830  0.6822777837388527  0.3160774784939915
  0.9582254790088798  0.0047533233909355  0.5188083359277318
  0.9585878862208276  0.0042196402383643  0.0214108554632551
  0.4883620004653014  0.5081398037567070  0.5424996189483512
  0.4880563184583294  0.5087192706084483  0.0398805074877693
 
  0.00000000E+00  0.00000000E+00  0.00000000E+00
  0.00000000E+00  0.00000000E+00  0.00000000E+00
  0.00000000E+00  0.00000000E+00  0.00000000E+00
  0.00000000E+00  0.00000000E+00  0.00000000E+00
  0.00000000E+00  0.00000000E+00  0.00000000E+00
  0.00000000E+00  0.00000000E+00  0.00000000E+00
  0.00000000E+00  0.00000000E+00  0.00000000E+00
  0.00000000E+00  0.00000000E+00  0.00000000E+00
  0.00000000E+00  0.00000000E+00  0.00000000E+00
  0.00000000E+00  0.00000000E+00  0.00000000E+00
  0.00000000E+00  0.00000000E+00  0.00000000E+00
  0.00000000E+00  0.00000000E+00  0.00000000E+00
  0.00000000E+00  0.00000000E+00  0.00000000E+00
  0.00000000E+00  0.00000000E+00  0.00000000E+00
  0.00000000E+00  0.00000000E+00  0.00000000E+00
  0.00000000E+00  0.00000000E+00  0.00000000E+00
  0.00000000E+00  0.00000000E+00  0.00000000E+00
  0.00000000E+00  0.00000000E+00  0.00000000E+00
  0.00000000E+00  0.00000000E+00  0.00000000E+00
  0.00000000E+00  0.00000000E+00  0.00000000E+00
