Poscar file generated with pyiron       
   1.00000000000000     
     8.4714750646906936   -0.0053409156708129   -0.0880346939776028
    -0.0287210217987572   13.9504693777364750    0.0421390773895062
     0.1538391856810869   -0.0201807021146979    7.9820741062471701
   Cs   I    Pb
     4    12     4
Direct
  0.4839889082850512  0.1540047128440193  0.2607995976353770
  0.9694197369317735  0.3358706873372100  0.7735111147568374
  0.9753715338476745  0.6545457791238254  0.2733394181214302
  0.4785321271039381  0.8355806699629205  0.7604414241272951
  0.2322749654612721  0.0917023841659943  0.6677206083472377
  0.2213054170286038  0.3963845247941791  0.3671297924833191
  0.7160412583139568  0.0841683120308309  0.6725127993442550
  0.7374373966915782  0.4072960543125805  0.3616190281951506
  0.4807005139114305  0.3134717311622202  0.8688068558196771
  0.9687347623975684  0.1763736600600063  0.1657379248731213
  0.7296162559893608  0.5911991969672442  0.8621843405475956
  0.7230485096115469  0.8976571680768808  0.1728532349110336
  0.2129270788479267  0.5837110304947509  0.8663891399886207
  0.2399220648248657  0.9071419808688073  0.1674567284438982
  0.9865094538014144  0.8136932926726967  0.6659123123496844
  0.4615077782688933  0.6761042838210625  0.3686716796831588
  0.9783495475917255  0.9955921728403393  0.4295143622507635
  0.9776990065159314  0.9945635196656013  0.9294619293784218
  0.4738179863956444  0.4942158626429628  0.6049416023262367
  0.4739867814965802  0.4952990769314463  0.1051097743018837
 
  0.00000000E+00  0.00000000E+00  0.00000000E+00
  0.00000000E+00  0.00000000E+00  0.00000000E+00
  0.00000000E+00  0.00000000E+00  0.00000000E+00
  0.00000000E+00  0.00000000E+00  0.00000000E+00
  0.00000000E+00  0.00000000E+00  0.00000000E+00
  0.00000000E+00  0.00000000E+00  0.00000000E+00
  0.00000000E+00  0.00000000E+00  0.00000000E+00
  0.00000000E+00  0.00000000E+00  0.00000000E+00
  0.00000000E+00  0.00000000E+00  0.00000000E+00
  0.00000000E+00  0.00000000E+00  0.00000000E+00
  0.00000000E+00  0.00000000E+00  0.00000000E+00
  0.00000000E+00  0.00000000E+00  0.00000000E+00
  0.00000000E+00  0.00000000E+00  0.00000000E+00
  0.00000000E+00  0.00000000E+00  0.00000000E+00
  0.00000000E+00  0.00000000E+00  0.00000000E+00
  0.00000000E+00  0.00000000E+00  0.00000000E+00
  0.00000000E+00  0.00000000E+00  0.00000000E+00
  0.00000000E+00  0.00000000E+00  0.00000000E+00
  0.00000000E+00  0.00000000E+00  0.00000000E+00
  0.00000000E+00  0.00000000E+00  0.00000000E+00
