Poscar file generated with pyiron       
   1.00000000000000     
     8.2618473243997279   -0.1101990112167459    1.3116380274313644
     0.0658240548002662   14.6225737008175116    0.6494616296055897
     0.0955652291576816   -0.2044985682563143    7.8533021171393349
   Cs   I    Pb
     4    12     4
Direct
  0.4919878063914480  0.1853549448201997  0.2155872750317545
  0.9957357925670661  0.3616195191363398  0.7771840260506798
  0.9876367425397568  0.7036746404733303  0.2593793692852230
  0.4962091165925428  0.8443628609370795  0.7304705827744267
  0.2387742512184540  0.1301267484775126  0.6660786940656757
  0.2484387893570874  0.4163973445733777  0.3260677900396107
  0.7021937857659321  0.0903988038554840  0.7606345773567211
  0.7845107336748446  0.4570984118812014  0.2312922791035679
  0.5149092768559425  0.3476884422822514  0.7932060656234416
  0.9728417756419044  0.1995368227618515  0.1986348275977333
  0.7587900933754667  0.6166427887089297  0.7247578118676783
  0.7266405041550402  0.9313103741612012  0.2674028851059921
  0.2208403217747718  0.6017907573286545  0.8297023688674213
  0.2650216482247810  0.9449570286798510  0.1623678075495393
  0.0222405565333520  0.8501093126508501  0.7021690718353261
  0.4625815942557297  0.6970337075446736  0.2900074687966165
  0.9896258727272150  0.0269174826025206  0.4636549342958904
  0.9886926454574105  0.0234079081848645  0.9613215477342433
  0.4967304614245853  0.5203483840942431  0.5283725141447144
  0.4976712997972640  0.5237734057216339  0.0306278644787979
 
  0.00000000E+00  0.00000000E+00  0.00000000E+00
  0.00000000E+00  0.00000000E+00  0.00000000E+00
  0.00000000E+00  0.00000000E+00  0.00000000E+00
  0.00000000E+00  0.00000000E+00  0.00000000E+00
  0.00000000E+00  0.00000000E+00  0.00000000E+00
  0.00000000E+00  0.00000000E+00  0.00000000E+00
  0.00000000E+00  0.00000000E+00  0.00000000E+00
  0.00000000E+00  0.00000000E+00  0.00000000E+00
  0.00000000E+00  0.00000000E+00  0.00000000E+00
  0.00000000E+00  0.00000000E+00  0.00000000E+00
  0.00000000E+00  0.00000000E+00  0.00000000E+00
  0.00000000E+00  0.00000000E+00  0.00000000E+00
  0.00000000E+00  0.00000000E+00  0.00000000E+00
  0.00000000E+00  0.00000000E+00  0.00000000E+00
  0.00000000E+00  0.00000000E+00  0.00000000E+00
  0.00000000E+00  0.00000000E+00  0.00000000E+00
  0.00000000E+00  0.00000000E+00  0.00000000E+00
  0.00000000E+00  0.00000000E+00  0.00000000E+00
  0.00000000E+00  0.00000000E+00  0.00000000E+00
  0.00000000E+00  0.00000000E+00  0.00000000E+00
