Poscar file generated with pyiron       
   1.00000000000000     
     8.4647797234141464    0.1492097089878087    0.2171270640574092
    -0.2621394784196523   13.9145911823317121    0.0065612202752850
    -0.1454401610151455   -0.0064703600600071    8.0064853983432123
   Cs   I    Pb
     4    12     4
Direct
  0.4878685174056370  0.1809137713395131  0.2635446773008817
  0.9742813683723847  0.3639078188380233  0.7777686737815427
  0.9777190668392013  0.6799781733075628  0.2790191272336563
  0.4833750450669287  0.8641763194225778  0.7631619184961449
  0.2376382295173385  0.1192691225275858  0.6683317029284429
  0.2218756526229900  0.4267120517464598  0.3712758059420308
  0.7219813165158726  0.1122416413520497  0.6734367950334822
  0.7375207979899940  0.4313455055189639  0.3692460599326113
  0.4824679540470430  0.3407683737536141  0.8740069524172392
  0.9750820719421244  0.2040222288941433  0.1671435436748251
  0.7338411068726459  0.6180768513445435  0.8672996838351251
  0.7289604965747193  0.9251027625525509  0.1724031189474758
  0.2175419225323549  0.6129103373031003  0.8732990590661907
  0.2450998849688656  0.9335357545868210  0.1692667461582180
  0.9921278402679066  0.8408193180751887  0.6670262701014572
  0.4712961601577923  0.7040359455924140  0.3740251895778332
  0.9836528913178063  0.0228364113122545  0.4302914511713789
  0.9837783358586857  0.0219510002261833  0.9303526239921480
  0.4765337632381215  0.5219404685660687  0.6108323213074313
  0.4779428393329458  0.5228729459670297  0.1107319799189909
 
  0.00000000E+00  0.00000000E+00  0.00000000E+00
  0.00000000E+00  0.00000000E+00  0.00000000E+00
  0.00000000E+00  0.00000000E+00  0.00000000E+00
  0.00000000E+00  0.00000000E+00  0.00000000E+00
  0.00000000E+00  0.00000000E+00  0.00000000E+00
  0.00000000E+00  0.00000000E+00  0.00000000E+00
  0.00000000E+00  0.00000000E+00  0.00000000E+00
  0.00000000E+00  0.00000000E+00  0.00000000E+00
  0.00000000E+00  0.00000000E+00  0.00000000E+00
  0.00000000E+00  0.00000000E+00  0.00000000E+00
  0.00000000E+00  0.00000000E+00  0.00000000E+00
  0.00000000E+00  0.00000000E+00  0.00000000E+00
  0.00000000E+00  0.00000000E+00  0.00000000E+00
  0.00000000E+00  0.00000000E+00  0.00000000E+00
  0.00000000E+00  0.00000000E+00  0.00000000E+00
  0.00000000E+00  0.00000000E+00  0.00000000E+00
  0.00000000E+00  0.00000000E+00  0.00000000E+00
  0.00000000E+00  0.00000000E+00  0.00000000E+00
  0.00000000E+00  0.00000000E+00  0.00000000E+00
  0.00000000E+00  0.00000000E+00  0.00000000E+00
