Poscar file generated with pyiron       
   1.00000000000000     
     8.4600190000000008    0.2453250000000000    0.3711150000000000
    -0.4376260000000000   13.9164060000000003    0.2126280000000000
    -0.3034430000000000   -0.1321430000000000    7.9969049999999999
   Cs   I    Pb
     4    12     4
Direct
  0.4820328179693263  0.1716808011412141  0.2729888312905260
  0.9686445143425075  0.3541322285595356  0.7875534323484672
  0.9732291319360371  0.6703671543532366  0.2890709420156128
  0.4797088686208824  0.8546951801567317  0.7724145170157328
  0.2356500720277097  0.1078189072531401  0.6792248725489571
  0.2159284478605699  0.4166991404624625  0.3820598835522375
  0.7196459271047004  0.1041054783257991  0.6818799460929128
  0.7315028352603434  0.4223700913534572  0.3785989675492587
  0.4771790328790004  0.3311669670488371  0.8830480147194493
  0.9710207292984592  0.1945087926519165  0.1774813489020914
  0.7267179067341658  0.6088898978227064  0.8796254854662706
  0.7247632336967627  0.9156132366962524  0.1824183535330661
  0.2100110693481341  0.6025034269821035  0.8811059715477754
  0.2410693388717959  0.9241151854701855  0.1787126100138394
  0.9830757889019708  0.8312499933165682  0.6775675349197883
  0.4646257114427428  0.6944738211696020  0.3831914140998762
  0.9797533395133229  0.0131993354077977  0.4401330186906236
  0.9795964541181092  0.0124345384923359  0.9403034775379382
  0.4706632027872644  0.5124842742989983  0.6202640149531433
  0.4706342581749752  0.5131874312175100  0.1200030661085449
 
  0.00000000E+00  0.00000000E+00  0.00000000E+00
  0.00000000E+00  0.00000000E+00  0.00000000E+00
  0.00000000E+00  0.00000000E+00  0.00000000E+00
  0.00000000E+00  0.00000000E+00  0.00000000E+00
  0.00000000E+00  0.00000000E+00  0.00000000E+00
  0.00000000E+00  0.00000000E+00  0.00000000E+00
  0.00000000E+00  0.00000000E+00  0.00000000E+00
  0.00000000E+00  0.00000000E+00  0.00000000E+00
  0.00000000E+00  0.00000000E+00  0.00000000E+00
  0.00000000E+00  0.00000000E+00  0.00000000E+00
  0.00000000E+00  0.00000000E+00  0.00000000E+00
  0.00000000E+00  0.00000000E+00  0.00000000E+00
  0.00000000E+00  0.00000000E+00  0.00000000E+00
  0.00000000E+00  0.00000000E+00  0.00000000E+00
  0.00000000E+00  0.00000000E+00  0.00000000E+00
  0.00000000E+00  0.00000000E+00  0.00000000E+00
  0.00000000E+00  0.00000000E+00  0.00000000E+00
  0.00000000E+00  0.00000000E+00  0.00000000E+00
  0.00000000E+00  0.00000000E+00  0.00000000E+00
  0.00000000E+00  0.00000000E+00  0.00000000E+00
