Poscar file generated with pyiron       
   1.00000000000000     
     8.2954006132855955    0.1266435621100929    1.1306558325426634
    -0.1054070154800568   14.5302097956465666   -0.4802366614921524
     0.2845917789484681    0.1671302709654814    7.8861026781314125
   Cs   I    Pb
     4    12     4
Direct
  0.4788462070298689  0.1933989907137615  0.2218159389692470
  0.9624368084394994  0.3432381408156043  0.7680571427790152
  0.9621205048843290  0.6831552870407488  0.2754276668624425
  0.4772631715686954  0.8526803888380676  0.7141568868138888
  0.2494074486958430  0.0976183625600114  0.6541605209378257
  0.1915404669189939  0.4381322790838331  0.3356922449870164
  0.7113136667875203  0.1101142972814449  0.7580102531805205
  0.7306796417776358  0.4266634595138079  0.2310821015095777
  0.4388277818196025  0.3430438823092853  0.7986776460051086
  0.0022016184615853  0.1926534920263972  0.1908184700106925
  0.7477695322055498  0.5901399197052417  0.7358589367964375
  0.6922403104327300  0.9459408321931747  0.2542057531976950
  0.2137971872541734  0.6212134713338847  0.8319753810083206
  0.2264134817887847  0.9142937063255535  0.1574741853212286
  0.9625006747195701  0.8418240527055473  0.6895189991326998
  0.4773973343675560  0.6938214537689031  0.3001192697436530
  0.9749098858139422  0.0189671769951522  0.4536900317484146
  0.9749137336544685  0.0150973457750588  0.9552476489705642
  0.4660224133138935  0.5167488936428255  0.5358900210977892
  0.4653663596517597  0.5207266763046446  0.0343866027912972
 
  0.00000000E+00  0.00000000E+00  0.00000000E+00
  0.00000000E+00  0.00000000E+00  0.00000000E+00
  0.00000000E+00  0.00000000E+00  0.00000000E+00
  0.00000000E+00  0.00000000E+00  0.00000000E+00
  0.00000000E+00  0.00000000E+00  0.00000000E+00
  0.00000000E+00  0.00000000E+00  0.00000000E+00
  0.00000000E+00  0.00000000E+00  0.00000000E+00
  0.00000000E+00  0.00000000E+00  0.00000000E+00
  0.00000000E+00  0.00000000E+00  0.00000000E+00
  0.00000000E+00  0.00000000E+00  0.00000000E+00
  0.00000000E+00  0.00000000E+00  0.00000000E+00
  0.00000000E+00  0.00000000E+00  0.00000000E+00
  0.00000000E+00  0.00000000E+00  0.00000000E+00
  0.00000000E+00  0.00000000E+00  0.00000000E+00
  0.00000000E+00  0.00000000E+00  0.00000000E+00
  0.00000000E+00  0.00000000E+00  0.00000000E+00
  0.00000000E+00  0.00000000E+00  0.00000000E+00
  0.00000000E+00  0.00000000E+00  0.00000000E+00
  0.00000000E+00  0.00000000E+00  0.00000000E+00
  0.00000000E+00  0.00000000E+00  0.00000000E+00
