Poscar file generated with pyiron       
   1.00000000000000     
     8.4621699001835022    0.1290478128392878    0.2868098656222896
    -0.2375387593304812   13.9534058060282220   -0.0317109725833786
    -0.1370593505453950    0.0198487048296425    7.9801109376822481
   Cs   I    Pb
     4    12     4
Direct
  0.4942498376550322  0.1815848769386711  0.2653072073636182
  0.9694866274996274  0.3631365080614686  0.7785983800021807
  0.9746484626112342  0.6803112272617566  0.2818024954885954
  0.4892691685377190  0.8633134429678291  0.7646474367058215
  0.2402296432127569  0.1213743871173482  0.6697013987236916
  0.2221016069406106  0.4251184501857295  0.3736953094480602
  0.7243168705273673  0.1103423147240919  0.6793518182410881
  0.7379617857840850  0.4332273335180344  0.3656058802064758
  0.4849700156804510  0.3411741048868467  0.8741476260001508
  0.9766251477564373  0.2039121948766955  0.1701041452199777
  0.7311101177072429  0.6196476552943133  0.8643877466874416
  0.7345911621546216  0.9240468741859825  0.1789813319924760
  0.2130897617169397  0.6096353098864231  0.8749423282780912
  0.2521031644710650  0.9367254369802731  0.1700008306948995
  0.0017501298544980  0.8415082697804633  0.6701037083038145
  0.4652025747394135  0.7036975188703212  0.3741013835199474
  0.9888818082877380  0.0232705862579142  0.4335456357036246
  0.9885447093493267  0.0221591873538124  0.9335396349384109
  0.4747241584230980  0.5217828764216098  0.6106273288203758
  0.4757260432416901  0.5229607797182656  0.1105290779735709
 
  0.00000000E+00  0.00000000E+00  0.00000000E+00
  0.00000000E+00  0.00000000E+00  0.00000000E+00
  0.00000000E+00  0.00000000E+00  0.00000000E+00
  0.00000000E+00  0.00000000E+00  0.00000000E+00
  0.00000000E+00  0.00000000E+00  0.00000000E+00
  0.00000000E+00  0.00000000E+00  0.00000000E+00
  0.00000000E+00  0.00000000E+00  0.00000000E+00
  0.00000000E+00  0.00000000E+00  0.00000000E+00
  0.00000000E+00  0.00000000E+00  0.00000000E+00
  0.00000000E+00  0.00000000E+00  0.00000000E+00
  0.00000000E+00  0.00000000E+00  0.00000000E+00
  0.00000000E+00  0.00000000E+00  0.00000000E+00
  0.00000000E+00  0.00000000E+00  0.00000000E+00
  0.00000000E+00  0.00000000E+00  0.00000000E+00
  0.00000000E+00  0.00000000E+00  0.00000000E+00
  0.00000000E+00  0.00000000E+00  0.00000000E+00
  0.00000000E+00  0.00000000E+00  0.00000000E+00
  0.00000000E+00  0.00000000E+00  0.00000000E+00
  0.00000000E+00  0.00000000E+00  0.00000000E+00
  0.00000000E+00  0.00000000E+00  0.00000000E+00
