Poscar file generated with pyiron       
   1.00000000000000     
     8.3138694612186317   -0.2093174620128255    1.1490422558046669
     0.3162916667840265   14.3565789669913730    0.2972430028752958
     0.0257332339736559   -0.1515559524934105    7.9133011705636580
   Cs   I    Pb
     4    12     4
Direct
  0.4857629923337540  0.1867474173029617  0.2361996055715987
  0.9478035527540338  0.3608123532214272  0.7978054007887274
  0.9471624195266641  0.6874423588628706  0.2961475636697508
  0.4819598520000438  0.8607050166831528  0.7312763740015751
  0.2387595221909182  0.1150417004157831  0.6649244520704931
  0.1952227995769723  0.4277229653249330  0.3670201063634361
  0.7093845606677269  0.1099608781520654  0.7437616273292832
  0.7245657399522674  0.4377674949597627  0.2854695241174686
  0.4499405344845173  0.3455632511561783  0.8418007825053324
  0.9844226532966023  0.1996788570845473  0.1888288552872489
  0.7180398552793814  0.6134389986904377  0.7860195943091624
  0.7098412281721522  0.9342667609046047  0.2464286594029592
  0.1875178164339732  0.6101284710067142  0.8670350091825511
  0.2408725411194473  0.9326271245541162  0.1628257359065871
  0.9887930370400472  0.8457605106972307  0.6893851425393015
  0.4391193516448291  0.6994399629257644  0.3419753482987187
  0.9786577646597059  0.0247325352567789  0.4550804549749921
  0.9775239212015752  0.0208605459179427  0.9550507832615228
  0.4533129756038874  0.5206128140129359  0.5756841429225129
  0.4526956923270535  0.5245052494260025  0.0759226576709020
 
  0.00000000E+00  0.00000000E+00  0.00000000E+00
  0.00000000E+00  0.00000000E+00  0.00000000E+00
  0.00000000E+00  0.00000000E+00  0.00000000E+00
  0.00000000E+00  0.00000000E+00  0.00000000E+00
  0.00000000E+00  0.00000000E+00  0.00000000E+00
  0.00000000E+00  0.00000000E+00  0.00000000E+00
  0.00000000E+00  0.00000000E+00  0.00000000E+00
  0.00000000E+00  0.00000000E+00  0.00000000E+00
  0.00000000E+00  0.00000000E+00  0.00000000E+00
  0.00000000E+00  0.00000000E+00  0.00000000E+00
  0.00000000E+00  0.00000000E+00  0.00000000E+00
  0.00000000E+00  0.00000000E+00  0.00000000E+00
  0.00000000E+00  0.00000000E+00  0.00000000E+00
  0.00000000E+00  0.00000000E+00  0.00000000E+00
  0.00000000E+00  0.00000000E+00  0.00000000E+00
  0.00000000E+00  0.00000000E+00  0.00000000E+00
  0.00000000E+00  0.00000000E+00  0.00000000E+00
  0.00000000E+00  0.00000000E+00  0.00000000E+00
  0.00000000E+00  0.00000000E+00  0.00000000E+00
  0.00000000E+00  0.00000000E+00  0.00000000E+00
