Poscar file generated with pyiron       
   1.00000000000000     
     8.3039906451286907    0.1488446089653856    1.1801236598137472
    -0.1756136304265297   14.5374031657830933   -0.4764036986129734
     0.1417797536930591    0.1686184451759949    7.8638706758348240
   Cs   I    Pb
     4    12     4
Direct
  0.4817481089391748  0.1937432747878608  0.2154191685147256
  0.9671715567726471  0.3443125460256131  0.7656963208418059
  0.9685261877026899  0.6792382888712193  0.2732190938929326
  0.4808099156685764  0.8582681825787873  0.7078403872977628
  0.2512820500646408  0.0970589337366216  0.6459210083006447
  0.1969315723324015  0.4405344086336095  0.3342242269929425
  0.7162346860824973  0.1140346056382100  0.7429056061645637
  0.7322659717124725  0.4241969307399640  0.2366882738135815
  0.4373988938638568  0.3448043867060410  0.8003169286098221
  0.0112549853935419  0.1931148675205535  0.1796098405694059
  0.7572146555136490  0.5883927916931495  0.7403850118386339
  0.6902612642182512  0.9499591809706918  0.2396189936651333
  0.2258173102124849  0.6266404886352538  0.8289991233095236
  0.2214224617923261  0.9106842585229576  0.1507957507519884
  0.9588512929636889  0.8426036388191924  0.6806919985537104
  0.4895945465801234  0.6952482876296983  0.2994410267079963
  0.9756115802892010  0.0194957938931443  0.4425237953813702
  0.9759077476608078  0.0157367623963008  0.9447206157375714
  0.4726676481643503  0.5183119503642577  0.5373052283522537
  0.4719332379321381  0.5222037642128348  0.0352188170385781
 
  0.00000000E+00  0.00000000E+00  0.00000000E+00
  0.00000000E+00  0.00000000E+00  0.00000000E+00
  0.00000000E+00  0.00000000E+00  0.00000000E+00
  0.00000000E+00  0.00000000E+00  0.00000000E+00
  0.00000000E+00  0.00000000E+00  0.00000000E+00
  0.00000000E+00  0.00000000E+00  0.00000000E+00
  0.00000000E+00  0.00000000E+00  0.00000000E+00
  0.00000000E+00  0.00000000E+00  0.00000000E+00
  0.00000000E+00  0.00000000E+00  0.00000000E+00
  0.00000000E+00  0.00000000E+00  0.00000000E+00
  0.00000000E+00  0.00000000E+00  0.00000000E+00
  0.00000000E+00  0.00000000E+00  0.00000000E+00
  0.00000000E+00  0.00000000E+00  0.00000000E+00
  0.00000000E+00  0.00000000E+00  0.00000000E+00
  0.00000000E+00  0.00000000E+00  0.00000000E+00
  0.00000000E+00  0.00000000E+00  0.00000000E+00
  0.00000000E+00  0.00000000E+00  0.00000000E+00
  0.00000000E+00  0.00000000E+00  0.00000000E+00
  0.00000000E+00  0.00000000E+00  0.00000000E+00
  0.00000000E+00  0.00000000E+00  0.00000000E+00
