Poscar file generated with pyiron       
   1.00000000000000     
     8.4589261860953187    0.1872648971329291    0.2778637602534481
    -0.3227388285961627   13.9314535073845089   -0.1187512113782441
    -0.2255001719887883    0.0559175005297858    7.9931139401378779
   Cs   I    Pb
     4    12     4
Direct
  0.4879334837201763  0.1768159165931201  0.2645595215211095
  0.9750598289650912  0.3591315931700511  0.7785840485062109
  0.9799465299155522  0.6758062055672315  0.2810230381780465
  0.4860000435802969  0.8586560090122149  0.7671824157969416
  0.2412169418088419  0.1142357748136694  0.6728093128326398
  0.2214756998882400  0.4233108449608646  0.3713548264599675
  0.7244633905376389  0.1085719727706466  0.6749749883463321
  0.7376007213478055  0.4270103055204246  0.3680005480935514
  0.4841141892895574  0.3369062754211605  0.8741905340749139
  0.9772207950201647  0.1999616775524478  0.1697213428634103
  0.7350251480518331  0.6134591137010379  0.8695657350790528
  0.7315301167269431  0.9209912867698286  0.1745792484743775
  0.2173960282503535  0.6086465183352932  0.8707395233267063
  0.2478216416154810  0.9298358380767642  0.1720771432341317
  0.9911582225898339  0.8369620699490312  0.6694018455355636
  0.4733276172323443  0.7001692456563466  0.3748024007873872
  0.9862294068199495  0.0189355833089259  0.4329178917845299
  0.9858528480135679  0.0179917244636547  0.9327546587451560
  0.4777764017723566  0.5179299143709527  0.6105514055863908
  0.4775164785415371  0.5189698760172050  0.1105410294948983
 
  0.00000000E+00  0.00000000E+00  0.00000000E+00
  0.00000000E+00  0.00000000E+00  0.00000000E+00
  0.00000000E+00  0.00000000E+00  0.00000000E+00
  0.00000000E+00  0.00000000E+00  0.00000000E+00
  0.00000000E+00  0.00000000E+00  0.00000000E+00
  0.00000000E+00  0.00000000E+00  0.00000000E+00
  0.00000000E+00  0.00000000E+00  0.00000000E+00
  0.00000000E+00  0.00000000E+00  0.00000000E+00
  0.00000000E+00  0.00000000E+00  0.00000000E+00
  0.00000000E+00  0.00000000E+00  0.00000000E+00
  0.00000000E+00  0.00000000E+00  0.00000000E+00
  0.00000000E+00  0.00000000E+00  0.00000000E+00
  0.00000000E+00  0.00000000E+00  0.00000000E+00
  0.00000000E+00  0.00000000E+00  0.00000000E+00
  0.00000000E+00  0.00000000E+00  0.00000000E+00
  0.00000000E+00  0.00000000E+00  0.00000000E+00
  0.00000000E+00  0.00000000E+00  0.00000000E+00
  0.00000000E+00  0.00000000E+00  0.00000000E+00
  0.00000000E+00  0.00000000E+00  0.00000000E+00
  0.00000000E+00  0.00000000E+00  0.00000000E+00
