Poscar file generated with pyiron       
   1.00000000000000     
     8.4766558779182137    0.0263731771091594   -0.0659439189691767
    -0.0937731419188273   13.9327580820210688   -0.1241825542271612
     0.0824906639300395    0.0705057416519203    7.9923608380858369
   Cs   I    Pb
     4    12     4
Direct
  0.4780501946541283  0.1495365349246186  0.2528557814749218
  0.9687326214467251  0.3317672448080843  0.7656408761498888
  0.9763177241263340  0.6491886795692381  0.2660190329052503
  0.4706896122594078  0.8316734985210622  0.7526678524027512
  0.2267631791870478  0.0895635639495024  0.6604263555910799
  0.2199943266760329  0.3912104653475456  0.3581011925717283
  0.7106563224662137  0.0777651690268358  0.6614751793689865
  0.7360926283783640  0.4038974672166056  0.3569494269470149
  0.4859874590529155  0.3090632007635125  0.8613095329934917
  0.9609001840106658  0.1721631218794480  0.1568581081139362
  0.7249422161594403  0.5899961542449050  0.8569727679402595
  0.7209849668990130  0.8915253340789373  0.1616847069565341
  0.2085926025583202  0.5770184395630039  0.8579996298226920
  0.2371711084197915  0.9037920341554736  0.1600366542153324
  0.9871822033332553  0.8091429108781224  0.6568656461928316
  0.4589677814924613  0.6720934308584074  0.3613389967685289
  0.9744059914718196  0.9911263850289381  0.4202255768499949
  0.9735702606797052  0.9901533196902050  0.9201521465329214
  0.4721938924786233  0.4900716422182736  0.5981343079553489
  0.4728992797982178  0.4909931484255558  0.0980456993611616
 
  0.00000000E+00  0.00000000E+00  0.00000000E+00
  0.00000000E+00  0.00000000E+00  0.00000000E+00
  0.00000000E+00  0.00000000E+00  0.00000000E+00
  0.00000000E+00  0.00000000E+00  0.00000000E+00
  0.00000000E+00  0.00000000E+00  0.00000000E+00
  0.00000000E+00  0.00000000E+00  0.00000000E+00
  0.00000000E+00  0.00000000E+00  0.00000000E+00
  0.00000000E+00  0.00000000E+00  0.00000000E+00
  0.00000000E+00  0.00000000E+00  0.00000000E+00
  0.00000000E+00  0.00000000E+00  0.00000000E+00
  0.00000000E+00  0.00000000E+00  0.00000000E+00
  0.00000000E+00  0.00000000E+00  0.00000000E+00
  0.00000000E+00  0.00000000E+00  0.00000000E+00
  0.00000000E+00  0.00000000E+00  0.00000000E+00
  0.00000000E+00  0.00000000E+00  0.00000000E+00
  0.00000000E+00  0.00000000E+00  0.00000000E+00
  0.00000000E+00  0.00000000E+00  0.00000000E+00
  0.00000000E+00  0.00000000E+00  0.00000000E+00
  0.00000000E+00  0.00000000E+00  0.00000000E+00
  0.00000000E+00  0.00000000E+00  0.00000000E+00
