Poscar file generated with pyiron       
   1.00000000000000     
     8.2973752784559540    0.1664486865393318    1.1047525947373855
    -0.2091201855023640   14.6177661792507152   -0.5499233917972685
     0.2435254847283555    0.1510986502372128    7.8444649738129559
   Cs   I    Pb
     4    12     4
Direct
  0.4745339712903557  0.2000480226404100  0.2175625060098843
  0.9661286543864704  0.3405851799203658  0.7515398097522212
  0.9713573682323374  0.6796208332908572  0.2675040456381558
  0.4685825391945194  0.8612269065407322  0.7019285486362189
  0.2411881197305663  0.0987975489955894  0.6473762939055285
  0.1993797487396755  0.4420975354529482  0.3224058007077723
  0.7047700218282578  0.1141068098600197  0.7488679258596673
  0.7359262487698145  0.4267159866871378  0.2210330836621177
  0.4381633514818835  0.3471165749197420  0.7843219023782541
  0.0023279883812532  0.1936413724009914  0.1855906870452154
  0.7638345175213710  0.5857083413878352  0.7276181965799307
  0.6768429802695713  0.9550305172889746  0.2422637901773847
  0.2291855675549644  0.6295564168640214  0.8186689860734312
  0.2114984347024883  0.9112367578244305  0.1513617680945154
  0.9471398478794774  0.8441806965103016  0.6826380820960616
  0.4929534208337029  0.6965659153979463  0.2873164809165495
  0.9649455429299720  0.0202259040193788  0.4448158939208284
  0.9655362652645139  0.0169295130709733  0.9474684901077183
  0.4756102109999951  0.5205763502294382  0.5251846924468129
  0.4751115440955637  0.5237728953362758  0.0224821979713415
 
  0.00000000E+00  0.00000000E+00  0.00000000E+00
  0.00000000E+00  0.00000000E+00  0.00000000E+00
  0.00000000E+00  0.00000000E+00  0.00000000E+00
  0.00000000E+00  0.00000000E+00  0.00000000E+00
  0.00000000E+00  0.00000000E+00  0.00000000E+00
  0.00000000E+00  0.00000000E+00  0.00000000E+00
  0.00000000E+00  0.00000000E+00  0.00000000E+00
  0.00000000E+00  0.00000000E+00  0.00000000E+00
  0.00000000E+00  0.00000000E+00  0.00000000E+00
  0.00000000E+00  0.00000000E+00  0.00000000E+00
  0.00000000E+00  0.00000000E+00  0.00000000E+00
  0.00000000E+00  0.00000000E+00  0.00000000E+00
  0.00000000E+00  0.00000000E+00  0.00000000E+00
  0.00000000E+00  0.00000000E+00  0.00000000E+00
  0.00000000E+00  0.00000000E+00  0.00000000E+00
  0.00000000E+00  0.00000000E+00  0.00000000E+00
  0.00000000E+00  0.00000000E+00  0.00000000E+00
  0.00000000E+00  0.00000000E+00  0.00000000E+00
  0.00000000E+00  0.00000000E+00  0.00000000E+00
  0.00000000E+00  0.00000000E+00  0.00000000E+00
