Poscar file generated with pyiron       
   1.00000000000000     
     8.2377671347499337    0.1247678938317542    1.4481486636375569
     0.1854849412057012   14.5212320611620473   -1.4952181323937885
    -0.0139420004491004    0.0717074858503165    7.8963571583633065
   Cs   I    Pb
     4    12     4
Direct
  0.4688046778623927  0.1887273376763858  0.2936743790407911
  0.9821300584043431  0.3467533330775965  0.7578595029341597
  0.9681820770096621  0.6870094781243791  0.2933696200003946
  0.4811159376417063  0.8489913528567525  0.7562208903661588
  0.2406692979870587  0.1009349320908167  0.7357772478237919
  0.2116942589802483  0.4338998819360878  0.3161065090538745
  0.7025470697518945  0.1064773437624387  0.8389788499466400
  0.7499724610341979  0.4285449600462574  0.2133453367577622
  0.4807435054904956  0.3417718225734738  0.7483609438682984
  0.9705881441625002  0.1930478541001171  0.3045687040116989
  0.7513113614059953  0.5986330320795354  0.7439050810536009
  0.7013613783674856  0.9359931281917296  0.3077961700632822
  0.2145296634321626  0.6113248490612231  0.8440294238187068
  0.2382948354055825  0.9239264644804276  0.2082109144368924
  0.9780220215803693  0.8414627662872445  0.7395943549791361
  0.4728258715788384  0.6933407775306581  0.3132479795683246
  0.9718686951449200  0.0171360598384728  0.5224202778875652
  0.9725810650838687  0.0169498393931591  0.0224936963128488
  0.4803460922140585  0.5175746384563308  0.5298749289754731
  0.4797720466515085  0.5180495347557310  0.0297351738638723
 
  0.00000000E+00  0.00000000E+00  0.00000000E+00
  0.00000000E+00  0.00000000E+00  0.00000000E+00
  0.00000000E+00  0.00000000E+00  0.00000000E+00
  0.00000000E+00  0.00000000E+00  0.00000000E+00
  0.00000000E+00  0.00000000E+00  0.00000000E+00
  0.00000000E+00  0.00000000E+00  0.00000000E+00
  0.00000000E+00  0.00000000E+00  0.00000000E+00
  0.00000000E+00  0.00000000E+00  0.00000000E+00
  0.00000000E+00  0.00000000E+00  0.00000000E+00
  0.00000000E+00  0.00000000E+00  0.00000000E+00
  0.00000000E+00  0.00000000E+00  0.00000000E+00
  0.00000000E+00  0.00000000E+00  0.00000000E+00
  0.00000000E+00  0.00000000E+00  0.00000000E+00
  0.00000000E+00  0.00000000E+00  0.00000000E+00
  0.00000000E+00  0.00000000E+00  0.00000000E+00
  0.00000000E+00  0.00000000E+00  0.00000000E+00
  0.00000000E+00  0.00000000E+00  0.00000000E+00
  0.00000000E+00  0.00000000E+00  0.00000000E+00
  0.00000000E+00  0.00000000E+00  0.00000000E+00
  0.00000000E+00  0.00000000E+00  0.00000000E+00
