Poscar file generated with pyiron       
   1.00000000000000     
     8.4829907780028364    0.0932108440553070   -0.0465526307810120
    -0.2157606550361704   13.9415026686701111    0.0008156213042240
     0.0899602231385504    0.0042428789869911    7.9869166446484474
   Cs   I    Pb
     4    12     4
Direct
  0.4982200240993059  0.1574672354643004  0.2537597784753657
  0.9800016590973090  0.3388131048459866  0.7647207967254217
  0.9900441112613192  0.6564793485565092  0.2663080717185066
  0.4871563895361651  0.8395656346973901  0.7520285304121541
  0.2426645973870428  0.0984912784264941  0.6599074041437911
  0.2350535572549280  0.3975882650852575  0.3591640376088646
  0.7271945576411182  0.0838882209657369  0.6623463130457841
  0.7504378393128731  0.4123883632984928  0.3557405001385331
  0.5020439599074574  0.3167458029226035  0.8613277181090060
  0.9757837596652544  0.1795526920141629  0.1565200932360039
  0.7372675471978110  0.5987990287705517  0.8564061048780844
  0.7400822431480669  0.8976787985925171  0.1627025746710324
  0.2208041661344714  0.5826081892112653  0.8583883567616619
  0.2566510294952590  0.9137409589061655  0.1596100088215311
  0.0074195454861021  0.8168430099508841  0.6566547118518025
  0.4698555579453924  0.6794414877183245  0.3610945073368693
  0.9924733746536671  0.9987965295210389  0.4199984575721942
  0.9912965504765177  0.9975816595279706  0.9201431009117556
  0.4855595464942229  0.4976485666950888  0.5982799413326609
  0.4859376600584933  0.4984188398722285  0.0981335193494083
 
  0.00000000E+00  0.00000000E+00  0.00000000E+00
  0.00000000E+00  0.00000000E+00  0.00000000E+00
  0.00000000E+00  0.00000000E+00  0.00000000E+00
  0.00000000E+00  0.00000000E+00  0.00000000E+00
  0.00000000E+00  0.00000000E+00  0.00000000E+00
  0.00000000E+00  0.00000000E+00  0.00000000E+00
  0.00000000E+00  0.00000000E+00  0.00000000E+00
  0.00000000E+00  0.00000000E+00  0.00000000E+00
  0.00000000E+00  0.00000000E+00  0.00000000E+00
  0.00000000E+00  0.00000000E+00  0.00000000E+00
  0.00000000E+00  0.00000000E+00  0.00000000E+00
  0.00000000E+00  0.00000000E+00  0.00000000E+00
  0.00000000E+00  0.00000000E+00  0.00000000E+00
  0.00000000E+00  0.00000000E+00  0.00000000E+00
  0.00000000E+00  0.00000000E+00  0.00000000E+00
  0.00000000E+00  0.00000000E+00  0.00000000E+00
  0.00000000E+00  0.00000000E+00  0.00000000E+00
  0.00000000E+00  0.00000000E+00  0.00000000E+00
  0.00000000E+00  0.00000000E+00  0.00000000E+00
  0.00000000E+00  0.00000000E+00  0.00000000E+00
