Poscar file generated with pyiron       
   1.00000000000000     
     8.3110820000000007    0.1241290000000000    1.0663350000000000
    -0.1918620000000000   14.5454120000000007   -0.4443820000000000
     0.3112870000000000    0.2905660000000000    7.8662979999999996
   Cs   I    Pb
     4    12     4
Direct
  0.4810185809024574  0.1848307220455467  0.2192833219875538
  0.9697999513088931  0.3539366099609325  0.7805434113698411
  0.9682049425284447  0.6931527865021181  0.2741929415313464
  0.4832899983823040  0.8454811779603233  0.7257152241686384
  0.2311044437839911  0.1220537607209948  0.6648145968135353
  0.2192613882563919  0.4162577036810049  0.3351157920355163
  0.6969037205596891  0.0912587068720541  0.7593753624169324
  0.7534937716065571  0.4466910851039074  0.2401399809631357
  0.4855932162060341  0.3431761808613416  0.8021904596061873
  0.9649063759785363  0.1950214411218241  0.1975645637704062
  0.7336575749734422  0.6123465146474132  0.7393223370239070
  0.7166280959515419  0.9262375997904257  0.2607429186994210
  0.1964716626090279  0.5983892436512619  0.8393925977918428
  0.2542806881275723  0.9400125832150152  0.1600593933865113
  0.0077841120607829  0.8444592899132957  0.6942335309011582
  0.4426482986837641  0.6937517769360539  0.3056840102970568
  0.9796417153607209  0.0219431328753927  0.4605960537740543
  0.9787592902609177  0.0178357472474033  0.9594166742284571
  0.4712190168206334  0.5162940791159869  0.5391065695947717
  0.4716032819301574  0.5204357947351852  0.0403899691492882
 
  0.00000000E+00  0.00000000E+00  0.00000000E+00
  0.00000000E+00  0.00000000E+00  0.00000000E+00
  0.00000000E+00  0.00000000E+00  0.00000000E+00
  0.00000000E+00  0.00000000E+00  0.00000000E+00
  0.00000000E+00  0.00000000E+00  0.00000000E+00
  0.00000000E+00  0.00000000E+00  0.00000000E+00
  0.00000000E+00  0.00000000E+00  0.00000000E+00
  0.00000000E+00  0.00000000E+00  0.00000000E+00
  0.00000000E+00  0.00000000E+00  0.00000000E+00
  0.00000000E+00  0.00000000E+00  0.00000000E+00
  0.00000000E+00  0.00000000E+00  0.00000000E+00
  0.00000000E+00  0.00000000E+00  0.00000000E+00
  0.00000000E+00  0.00000000E+00  0.00000000E+00
  0.00000000E+00  0.00000000E+00  0.00000000E+00
  0.00000000E+00  0.00000000E+00  0.00000000E+00
  0.00000000E+00  0.00000000E+00  0.00000000E+00
  0.00000000E+00  0.00000000E+00  0.00000000E+00
  0.00000000E+00  0.00000000E+00  0.00000000E+00
  0.00000000E+00  0.00000000E+00  0.00000000E+00
  0.00000000E+00  0.00000000E+00  0.00000000E+00
