Poscar file generated with pyiron       
   1.00000000000000     
     8.4673274124804543    0.1332319612417721   -0.0349323273866470
    -0.2170823572584547   13.9008853604551028   -0.0517427408229582
     0.1656155050753448    0.0336063616278660    8.0081151489072209
   Cs   I    Pb
     4    12     4
Direct
  0.5071169021885497  0.1603190960567869  0.2520846828497136
  0.9837834994310902  0.3451261834853704  0.7684654817842258
  0.9844830457287809  0.6599250538063939  0.2685623674470642
  0.5063404722602646  0.8457647764161331  0.7498102947746925
  0.2585614111370237  0.0970479404321798  0.6548271953948159
  0.2331390705558879  0.4076368724327645  0.3654425697256186
  0.7432674219476229  0.0952739819459232  0.6623414064192628
  0.7487950883813465  0.4099173974779393  0.3566284924704038
  0.4932771136423354  0.3205053760143114  0.8646469104071308
  0.0012003591592058  0.1842738530918027  0.1548780376030468
  0.7453273103477227  0.5981804012244074  0.8563372723140703
  0.7446043351079454  0.9080182945179661  0.1637817392841672
  0.2292046955601537  0.5929572112282241  0.8656935002166896
  0.2610383045015191  0.9105562326152002  0.1533547561249464
  0.0067713729137149  0.8206883003512558  0.6549211114291110
  0.4845679593368770  0.6840519622791666  0.3646024932931359
  0.0035830025245454  0.0029363205683249  0.4178932445765612
  0.0026968582177479  0.0020838627340174  0.9180422664832898
  0.4882183837970479  0.5018929382605385  0.6016370622912365
  0.4885019964075792  0.5027131742292040  0.1015695727508247
 
  0.00000000E+00  0.00000000E+00  0.00000000E+00
  0.00000000E+00  0.00000000E+00  0.00000000E+00
  0.00000000E+00  0.00000000E+00  0.00000000E+00
  0.00000000E+00  0.00000000E+00  0.00000000E+00
  0.00000000E+00  0.00000000E+00  0.00000000E+00
  0.00000000E+00  0.00000000E+00  0.00000000E+00
  0.00000000E+00  0.00000000E+00  0.00000000E+00
  0.00000000E+00  0.00000000E+00  0.00000000E+00
  0.00000000E+00  0.00000000E+00  0.00000000E+00
  0.00000000E+00  0.00000000E+00  0.00000000E+00
  0.00000000E+00  0.00000000E+00  0.00000000E+00
  0.00000000E+00  0.00000000E+00  0.00000000E+00
  0.00000000E+00  0.00000000E+00  0.00000000E+00
  0.00000000E+00  0.00000000E+00  0.00000000E+00
  0.00000000E+00  0.00000000E+00  0.00000000E+00
  0.00000000E+00  0.00000000E+00  0.00000000E+00
  0.00000000E+00  0.00000000E+00  0.00000000E+00
  0.00000000E+00  0.00000000E+00  0.00000000E+00
  0.00000000E+00  0.00000000E+00  0.00000000E+00
  0.00000000E+00  0.00000000E+00  0.00000000E+00
