Poscar file generated with pyiron       
   1.00000000000000     
     8.2495469266981178    0.2171355192108888    1.3840306635471387
    -0.1153192440309947   14.6528929758928843   -1.1023155464207419
     0.0171466224219899   -0.0291425782086471    7.8485970685455904
   Cs   I    Pb
     4    12     4
Direct
  0.4753409797982358  0.1760130252996541  0.2886963020707323
  0.9754746403095940  0.3175530277916168  0.7553105059310177
  0.9774561874803400  0.6588888221649006  0.2952157188414162
  0.4745688755241071  0.8345124042569619  0.7484956749249255
  0.2443932414964347  0.0719000625608426  0.7194166230458269
  0.2065308824961313  0.4216078389452782  0.3242788417993631
  0.7078095855546548  0.0933072523252232  0.8257267649406662
  0.7434249463101196  0.4002832732928585  0.2175905405902964
  0.4552632762814670  0.3234183910833298  0.7622709429782384
  0.9956512159987467  0.1701609493085022  0.2816154389979018
  0.7694513505372584  0.5635292689206992  0.7426802385820603
  0.6816101589292974  0.9302245458472468  0.3009910144565556
  0.2334755388196983  0.6045740121715144  0.8403976132204241
  0.2173983172539096  0.8890403153763179  0.2029355623378026
  0.9515967047533572  0.8209170957164296  0.7361928874668044
  0.4999012834190764  0.6728207355566217  0.3077356226756857
  0.9672910969511265  0.9954389757749889  0.5102214910246470
  0.9678243379536047  0.9949369844646090  0.0123454566007545
  0.4839371231953402  0.4981045756742474  0.5332868196743387
  0.4832106595155007  0.4988431647085523  0.0312903655081674
 
  0.00000000E+00  0.00000000E+00  0.00000000E+00
  0.00000000E+00  0.00000000E+00  0.00000000E+00
  0.00000000E+00  0.00000000E+00  0.00000000E+00
  0.00000000E+00  0.00000000E+00  0.00000000E+00
  0.00000000E+00  0.00000000E+00  0.00000000E+00
  0.00000000E+00  0.00000000E+00  0.00000000E+00
  0.00000000E+00  0.00000000E+00  0.00000000E+00
  0.00000000E+00  0.00000000E+00  0.00000000E+00
  0.00000000E+00  0.00000000E+00  0.00000000E+00
  0.00000000E+00  0.00000000E+00  0.00000000E+00
  0.00000000E+00  0.00000000E+00  0.00000000E+00
  0.00000000E+00  0.00000000E+00  0.00000000E+00
  0.00000000E+00  0.00000000E+00  0.00000000E+00
  0.00000000E+00  0.00000000E+00  0.00000000E+00
  0.00000000E+00  0.00000000E+00  0.00000000E+00
  0.00000000E+00  0.00000000E+00  0.00000000E+00
  0.00000000E+00  0.00000000E+00  0.00000000E+00
  0.00000000E+00  0.00000000E+00  0.00000000E+00
  0.00000000E+00  0.00000000E+00  0.00000000E+00
  0.00000000E+00  0.00000000E+00  0.00000000E+00
