Poscar file generated with pyiron       
   1.00000000000000     
     8.2937453110760320    0.1615765999978376    1.2008199512926268
    -0.1615724812476657   14.5604910716063909   -0.5021067621102998
     0.1930150637013374    0.1473552096944974    7.8639966163447808
   Cs   I    Pb
     4    12     4
Direct
  0.4827764060675758  0.1967374058921874  0.2219180815976265
  0.9700440814622638  0.3433308139969952  0.7616251496352018
  0.9695993228738864  0.6832421035803790  0.2709675884244581
  0.4827836302868840  0.8562916213783086  0.7105051028921703
  0.2541880406783144  0.0974651664062711  0.6529619233670633
  0.1983425439633568  0.4417365227092633  0.3292176106563029
  0.7165116755916143  0.1131533413933021  0.7557133887258237
  0.7366102383911212  0.4264904115202286  0.2263491401745910
  0.4431911067527093  0.3452933625857373  0.7914025798427242
  0.0101793718086649  0.1938581510021358  0.1905777897740467
  0.7587422809962340  0.5893315651172613  0.7319236090732865
  0.6933507730590683  0.9502833902283766  0.2501398021674948
  0.2248532964466498  0.6255484288557269  0.8257036508604443
  0.2271969245496379  0.9131414331401826  0.1562456745190647
  0.9632787153895532  0.8434351028418698  0.6878198944951348
  0.4893856631798417  0.6957769716246437  0.2942465980688824
  0.9780519485728735  0.0202219230576999  0.4514641166697839
  0.9788513961296900  0.0165276270469860  0.9534700741148704
  0.4745566374969578  0.5190260465810709  0.5306471628159786
  0.4736698314930905  0.5226435757391309  0.0286406136279172
 
  0.00000000E+00  0.00000000E+00  0.00000000E+00
  0.00000000E+00  0.00000000E+00  0.00000000E+00
  0.00000000E+00  0.00000000E+00  0.00000000E+00
  0.00000000E+00  0.00000000E+00  0.00000000E+00
  0.00000000E+00  0.00000000E+00  0.00000000E+00
  0.00000000E+00  0.00000000E+00  0.00000000E+00
  0.00000000E+00  0.00000000E+00  0.00000000E+00
  0.00000000E+00  0.00000000E+00  0.00000000E+00
  0.00000000E+00  0.00000000E+00  0.00000000E+00
  0.00000000E+00  0.00000000E+00  0.00000000E+00
  0.00000000E+00  0.00000000E+00  0.00000000E+00
  0.00000000E+00  0.00000000E+00  0.00000000E+00
  0.00000000E+00  0.00000000E+00  0.00000000E+00
  0.00000000E+00  0.00000000E+00  0.00000000E+00
  0.00000000E+00  0.00000000E+00  0.00000000E+00
  0.00000000E+00  0.00000000E+00  0.00000000E+00
  0.00000000E+00  0.00000000E+00  0.00000000E+00
  0.00000000E+00  0.00000000E+00  0.00000000E+00
  0.00000000E+00  0.00000000E+00  0.00000000E+00
  0.00000000E+00  0.00000000E+00  0.00000000E+00
