Poscar file generated with pyiron       
   1.00000000000000     
     8.3570753031136302    0.0065449604421950    0.9474020611959612
    -0.0296626330398710   14.3587110016557471    0.1958779627606191
     0.0996766399762910   -0.1328704344293207    7.8909236585450957
   Cs   I    Pb
     4    12     4
Direct
  0.4926984527595763  0.1702304659980664  0.2490747914919754
  0.9611158952736655  0.3413171591509470  0.8053864537686586
  0.9581508864259360  0.6666261521283566  0.3014951608296992
  0.4926722038442121  0.8433793618791486  0.7468279794381854
  0.2523278310070796  0.0895765099722433  0.6733260405749031
  0.2011542712669020  0.4169729876214814  0.3763441375484768
  0.7231601016655542  0.0976919773996894  0.7463749456309217
  0.7312685028317224  0.4132650001986620  0.3011554426617211
  0.4487701021496710  0.3273887495275267  0.8525140166603701
  0.0057124855047888  0.1812794145883923  0.1963025546817340
  0.7373142277812444  0.5887078009406782  0.8042962354568429
  0.7114358569229049  0.9221112599838147  0.2460720004314928
  0.2106171612999745  0.6012906524130429  0.8734353787809582
  0.2380400523415084  0.9049040911010875  0.1745792934217107
  0.9826680228358432  0.8270161169727039  0.6973391552558799
  0.4665226474459385  0.6818311075321135  0.3526648903821429
  0.9851161541579174  0.0057955172861363  0.4616228611500302
  0.9851045872736061  0.0023637259926880  0.9624499779714555
  0.4669119114746341  0.5029215361926400  0.5873327244369155
  0.4656786692460065  0.5064742036388693  0.0869841003080923
 
  0.00000000E+00  0.00000000E+00  0.00000000E+00
  0.00000000E+00  0.00000000E+00  0.00000000E+00
  0.00000000E+00  0.00000000E+00  0.00000000E+00
  0.00000000E+00  0.00000000E+00  0.00000000E+00
  0.00000000E+00  0.00000000E+00  0.00000000E+00
  0.00000000E+00  0.00000000E+00  0.00000000E+00
  0.00000000E+00  0.00000000E+00  0.00000000E+00
  0.00000000E+00  0.00000000E+00  0.00000000E+00
  0.00000000E+00  0.00000000E+00  0.00000000E+00
  0.00000000E+00  0.00000000E+00  0.00000000E+00
  0.00000000E+00  0.00000000E+00  0.00000000E+00
  0.00000000E+00  0.00000000E+00  0.00000000E+00
  0.00000000E+00  0.00000000E+00  0.00000000E+00
  0.00000000E+00  0.00000000E+00  0.00000000E+00
  0.00000000E+00  0.00000000E+00  0.00000000E+00
  0.00000000E+00  0.00000000E+00  0.00000000E+00
  0.00000000E+00  0.00000000E+00  0.00000000E+00
  0.00000000E+00  0.00000000E+00  0.00000000E+00
  0.00000000E+00  0.00000000E+00  0.00000000E+00
  0.00000000E+00  0.00000000E+00  0.00000000E+00
