Poscar file generated with pyiron       
   1.00000000000000     
     8.2727851612437764    0.0695563341661866    1.3107284982817440
    -0.1344197201715180   14.5044060729220270   -0.0050617800605291
     0.0703948699532357    0.0243198826220181    7.8955771937554857
   Cs   I    Pb
     4    12     4
Direct
  0.4872347244694042  0.1894036058808758  0.2098810937260623
  0.9702434069122856  0.3573551392804568  0.7733155212660716
  0.9685562836818765  0.6945839733426662  0.2693869725144802
  0.4890520608751066  0.8536913682581244  0.7127356589590674
  0.2411645847578235  0.1238491624357549  0.6530844127659305
  0.2197939452082727  0.4218033909961230  0.3315861052616510
  0.7071774006646864  0.0992611047659483  0.7472053785116846
  0.7532305466554626  0.4498027462303570  0.2371845351090839
  0.4849567205211941  0.3478260821854465  0.7988574789387853
  0.9739061878347179  0.1997228518246021  0.1857879731691555
  0.7333386129667410  0.6177393243145768  0.7379738088959119
  0.7233074153171319  0.9308912930381303  0.2472610608621743
  0.1968603563151289  0.6033868604391603  0.8359932505121231
  0.2600734544521606  0.9427199180192929  0.1487134540255189
  0.0110900081304673  0.8483888915891195  0.6812534563021719
  0.4447976299974665  0.6989757542876933  0.3039701111012398
  0.9869181461862571  0.0261112606506367  0.4485332652867202
  0.9861337576845878  0.0220040413308809  0.9476753826416557
  0.4717246318946399  0.5213044352512336  0.5363676368274419
  0.4721706611013716  0.5255288301759672  0.0371999837442836
 
  0.00000000E+00  0.00000000E+00  0.00000000E+00
  0.00000000E+00  0.00000000E+00  0.00000000E+00
  0.00000000E+00  0.00000000E+00  0.00000000E+00
  0.00000000E+00  0.00000000E+00  0.00000000E+00
  0.00000000E+00  0.00000000E+00  0.00000000E+00
  0.00000000E+00  0.00000000E+00  0.00000000E+00
  0.00000000E+00  0.00000000E+00  0.00000000E+00
  0.00000000E+00  0.00000000E+00  0.00000000E+00
  0.00000000E+00  0.00000000E+00  0.00000000E+00
  0.00000000E+00  0.00000000E+00  0.00000000E+00
  0.00000000E+00  0.00000000E+00  0.00000000E+00
  0.00000000E+00  0.00000000E+00  0.00000000E+00
  0.00000000E+00  0.00000000E+00  0.00000000E+00
  0.00000000E+00  0.00000000E+00  0.00000000E+00
  0.00000000E+00  0.00000000E+00  0.00000000E+00
  0.00000000E+00  0.00000000E+00  0.00000000E+00
  0.00000000E+00  0.00000000E+00  0.00000000E+00
  0.00000000E+00  0.00000000E+00  0.00000000E+00
  0.00000000E+00  0.00000000E+00  0.00000000E+00
  0.00000000E+00  0.00000000E+00  0.00000000E+00
