Poscar file generated with pyiron       
   1.00000000000000     
     8.3204800038789308    0.1100337907851227    1.0109601617239725
    -0.1282240106787788   14.4024865327680995   -0.4698396362893871
     0.2668428617089920    0.2735923012932283    7.9129327008974117
   Cs   I    Pb
     4    12     4
Direct
  0.4827439171498069  0.1824690056015073  0.2154543851467230
  0.9522034046039614  0.3544133745729146  0.7803583245194655
  0.9517959492188096  0.6845556175221633  0.2807821825638567
  0.4812598396353092  0.8526790228833724  0.7153676224539806
  0.2349075508091729  0.1150858597773786  0.6499273502220549
  0.1999244979267371  0.4214743795687542  0.3453008365847532
  0.7040138888683002  0.1002308217118163  0.7379895170996501
  0.7304078554005923  0.4366945513913484  0.2580945074501057
  0.4579783920162673  0.3419588911508312  0.8176526098911250
  0.9774629900584895  0.1948466203266098  0.1776770116676860
  0.7214925893539530  0.6093844010503608  0.7574355184298051
  0.7123685254045696  0.9281480503651955  0.2381534614310411
  0.1877796624160872  0.6040583662638270  0.8480184008732554
  0.2457057505945383  0.9323646817285027  0.1479459510452856
  0.9965553805404380  0.8422774956202189  0.6759428635118705
  0.4380006437060143  0.6947515789425007  0.3194322747107842
  0.9783794092758997  0.0206941710998844  0.4432094767240387
  0.9778155432702531  0.0163753737116928  0.9428652887905865
  0.4558090705205877  0.5162432247299225  0.5524111604675543
  0.4564852537908016  0.5204768824510421  0.0528209862671629
 
  0.00000000E+00  0.00000000E+00  0.00000000E+00
  0.00000000E+00  0.00000000E+00  0.00000000E+00
  0.00000000E+00  0.00000000E+00  0.00000000E+00
  0.00000000E+00  0.00000000E+00  0.00000000E+00
  0.00000000E+00  0.00000000E+00  0.00000000E+00
  0.00000000E+00  0.00000000E+00  0.00000000E+00
  0.00000000E+00  0.00000000E+00  0.00000000E+00
  0.00000000E+00  0.00000000E+00  0.00000000E+00
  0.00000000E+00  0.00000000E+00  0.00000000E+00
  0.00000000E+00  0.00000000E+00  0.00000000E+00
  0.00000000E+00  0.00000000E+00  0.00000000E+00
  0.00000000E+00  0.00000000E+00  0.00000000E+00
  0.00000000E+00  0.00000000E+00  0.00000000E+00
  0.00000000E+00  0.00000000E+00  0.00000000E+00
  0.00000000E+00  0.00000000E+00  0.00000000E+00
  0.00000000E+00  0.00000000E+00  0.00000000E+00
  0.00000000E+00  0.00000000E+00  0.00000000E+00
  0.00000000E+00  0.00000000E+00  0.00000000E+00
  0.00000000E+00  0.00000000E+00  0.00000000E+00
  0.00000000E+00  0.00000000E+00  0.00000000E+00
