Poscar file generated with pyiron       
   1.00000000000000     
     8.2760689999999997    0.0451580000000000    1.2989320000000000
    -0.0867560000000000   14.4968210000000006   -0.0016160000000000
     0.1036230000000000    0.0314560000000000    7.9044800000000004
   Cs   I    Pb
     4    12     4
Direct
  0.4871650640860352  0.1928701496440226  0.2134013927082279
  0.9680014273098507  0.3590619154301891  0.7758378566246975
  0.9683667707996975  0.6960589784622826  0.2747072495138312
  0.4886849701703184  0.8557592584311422  0.7166064503075944
  0.2416956081089126  0.1257353232299394  0.6559304864768265
  0.2147820302810786  0.4260412742794770  0.3347030816065768
  0.7079007928347707  0.1020780058433601  0.7516257642854001
  0.7485005485043956  0.4501344792180646  0.2393324049836849
  0.4795720848897531  0.3501160015041052  0.8024155806676845
  0.9751309363609835  0.2019163835423043  0.1888582186881322
  0.7326408141297094  0.6183272419554129  0.7391629930366292
  0.7240480468632455  0.9331678549440028  0.2516229768082141
  0.1950897052259108  0.6063813568374741  0.8389622396154763
  0.2614597527446207  0.9458858324909230  0.1521491990314630
  0.0107247116418563  0.8504477052245818  0.6851204237055910
  0.4450932262880158  0.7015672440976104  0.3062281249822050
  0.9873381944802233  0.0283083120144454  0.4521819917519920
  0.9867266743085992  0.0241383462821645  0.9514459924080185
  0.4687324568470288  0.5236423930460390  0.5388263675383698
  0.4695567470183661  0.5278899587777985  0.0396920568705923
 
  0.00000000E+00  0.00000000E+00  0.00000000E+00
  0.00000000E+00  0.00000000E+00  0.00000000E+00
  0.00000000E+00  0.00000000E+00  0.00000000E+00
  0.00000000E+00  0.00000000E+00  0.00000000E+00
  0.00000000E+00  0.00000000E+00  0.00000000E+00
  0.00000000E+00  0.00000000E+00  0.00000000E+00
  0.00000000E+00  0.00000000E+00  0.00000000E+00
  0.00000000E+00  0.00000000E+00  0.00000000E+00
  0.00000000E+00  0.00000000E+00  0.00000000E+00
  0.00000000E+00  0.00000000E+00  0.00000000E+00
  0.00000000E+00  0.00000000E+00  0.00000000E+00
  0.00000000E+00  0.00000000E+00  0.00000000E+00
  0.00000000E+00  0.00000000E+00  0.00000000E+00
  0.00000000E+00  0.00000000E+00  0.00000000E+00
  0.00000000E+00  0.00000000E+00  0.00000000E+00
  0.00000000E+00  0.00000000E+00  0.00000000E+00
  0.00000000E+00  0.00000000E+00  0.00000000E+00
  0.00000000E+00  0.00000000E+00  0.00000000E+00
  0.00000000E+00  0.00000000E+00  0.00000000E+00
  0.00000000E+00  0.00000000E+00  0.00000000E+00
