Poscar file generated with pyiron       
   1.00000000000000     
     8.9018756111586850    0.3743773651107483   -0.3726610229146322
    -0.0200510180204780    8.8008381837255083    0.4223333558066762
     0.4539095185602862   -0.4524973421872729   12.2501691941985804
   Cs   I    Pb
     4    12     4
Direct
  0.0794251992426324  0.3802755138734215  0.2092719241187223
  0.0597190972189168  0.3830131346182419  0.7150399650838213
  0.5768483078608090  0.8694392600479733  0.7300913178289065
  0.5576244760718129  0.9038811967619237  0.2363767324631929
  0.3073815042546442  0.1410602970612071  0.4529298282913030
  0.8099187082940497  0.6380672283691032  0.4950407162559851
  0.8069230594816823  0.1285822688252204  0.5381371985474670
  0.3086253672939153  0.6334475581182832  0.4040928909135034
  0.8402554995452359  0.6166587713027198  0.9497175097348572
  0.3154234919130898  0.1419461691835655  0.9903181836425977
  0.3406379575375055  0.6483373485879615  0.0390330433853553
  0.8170465259428797  0.1275490820243765  0.9063854300704218
  0.1508272681553151  0.8322049195490780  0.7209860095434810
  0.9848878031022917  0.9343051140817936  0.2195138187139382
  0.6528734970313431  0.3380734067984689  0.2244841064320980
  0.4844838330843131  0.4350197351682655  0.7229852635717582
  0.0633319921460700  0.8854662476830699  0.4712266180303135
  0.5634593073588454  0.3870545146398939  0.4732360354581748
  0.0729848332570672  0.8816430831236751  0.9711367394821165
  0.5730760963300416  0.3834110899658901  0.9730039047366027
 
  0.00000000E+00  0.00000000E+00  0.00000000E+00
  0.00000000E+00  0.00000000E+00  0.00000000E+00
  0.00000000E+00  0.00000000E+00  0.00000000E+00
  0.00000000E+00  0.00000000E+00  0.00000000E+00
  0.00000000E+00  0.00000000E+00  0.00000000E+00
  0.00000000E+00  0.00000000E+00  0.00000000E+00
  0.00000000E+00  0.00000000E+00  0.00000000E+00
  0.00000000E+00  0.00000000E+00  0.00000000E+00
  0.00000000E+00  0.00000000E+00  0.00000000E+00
  0.00000000E+00  0.00000000E+00  0.00000000E+00
  0.00000000E+00  0.00000000E+00  0.00000000E+00
  0.00000000E+00  0.00000000E+00  0.00000000E+00
  0.00000000E+00  0.00000000E+00  0.00000000E+00
  0.00000000E+00  0.00000000E+00  0.00000000E+00
  0.00000000E+00  0.00000000E+00  0.00000000E+00
  0.00000000E+00  0.00000000E+00  0.00000000E+00
  0.00000000E+00  0.00000000E+00  0.00000000E+00
  0.00000000E+00  0.00000000E+00  0.00000000E+00
  0.00000000E+00  0.00000000E+00  0.00000000E+00
  0.00000000E+00  0.00000000E+00  0.00000000E+00
