Poscar file generated with pyiron       
   1.00000000000000     
     8.8947722096079485    0.0935942495589269   -0.0532764072585437
     0.2179186121924932    8.7967244025871167    0.4370372327656708
     0.1213420494046236   -0.7336789698497920   12.2740490067963748
   Cs   I    Pb
     4    12     4
Direct
  0.0840330687403178  0.3508219718904054  0.2333170851466236
  0.0648318182555206  0.4116579313602211  0.7260098377228691
  0.5838108319340808  0.8975558388048815  0.7247523911176873
  0.5646456909527293  0.8660128196532110  0.2215527952221491
  0.3422816335117497  0.1144207284786309  0.4548713092523216
  0.8129001607433936  0.6450275508512920  0.4970566270888125
  0.8401102370977477  0.1462294197394348  0.5407764489084872
  0.3149205714191356  0.6185731823532458  0.4106926799306399
  0.7947061843921046  0.6600980823294673  0.9550306549524352
  0.3489713272394369  0.1047727350437088  0.9956095830314363
  0.2956675424159416  0.6058358022545216  0.0387464811449253
  0.8455713080357804  0.1541220098669870  0.9125613628918695
  0.1571752403499171  0.8380410256347265  0.7258642628014980
  0.9910273705161204  0.9248493001339693  0.2269069802145973
  0.6547902039597862  0.3327007067835305  0.2247905195563291
  0.4936563643639086  0.4320721433568216  0.7256889705315026
  0.0759748915132431  0.8807957590285983  0.4762614562424711
  0.5759888149777578  0.3809401378303089  0.4756685504186533
  0.0726863968739939  0.8818156024914665  0.9762822665909265
  0.5725809520825216  0.3821279598679576  0.9754860408056629
 
  0.00000000E+00  0.00000000E+00  0.00000000E+00
  0.00000000E+00  0.00000000E+00  0.00000000E+00
  0.00000000E+00  0.00000000E+00  0.00000000E+00
  0.00000000E+00  0.00000000E+00  0.00000000E+00
  0.00000000E+00  0.00000000E+00  0.00000000E+00
  0.00000000E+00  0.00000000E+00  0.00000000E+00
  0.00000000E+00  0.00000000E+00  0.00000000E+00
  0.00000000E+00  0.00000000E+00  0.00000000E+00
  0.00000000E+00  0.00000000E+00  0.00000000E+00
  0.00000000E+00  0.00000000E+00  0.00000000E+00
  0.00000000E+00  0.00000000E+00  0.00000000E+00
  0.00000000E+00  0.00000000E+00  0.00000000E+00
  0.00000000E+00  0.00000000E+00  0.00000000E+00
  0.00000000E+00  0.00000000E+00  0.00000000E+00
  0.00000000E+00  0.00000000E+00  0.00000000E+00
  0.00000000E+00  0.00000000E+00  0.00000000E+00
  0.00000000E+00  0.00000000E+00  0.00000000E+00
  0.00000000E+00  0.00000000E+00  0.00000000E+00
  0.00000000E+00  0.00000000E+00  0.00000000E+00
  0.00000000E+00  0.00000000E+00  0.00000000E+00
