Poscar file generated with pyiron       
   1.00000000000000     
     8.4496183418084438    0.1182754439273174   -0.1328559232079312
    -0.1239849682084139    8.9901495931132231    0.1866857247385146
     0.2038423202734960   -0.2520270098754004   12.4715802371954396
   Cs   I    Pb
     4    12     4
Direct
  0.0715205241205885  0.3559869136728838  0.2276776183120631
  0.0150428158103301  0.5151853608153764  0.7273588304352659
  0.5712827986171871  0.0169770923925035  0.7271156604016633
  0.5151178089326520  0.8575201638785378  0.2270257106174026
  0.3568725858652702  0.1307131391677776  0.4375579398288340
  0.7304285956917324  0.7430659177291331  0.5170095616464087
  0.8567192663273582  0.2418545460292122  0.5170878033914976
  0.2304440042663991  0.6296205338253505  0.4374994387815989
  0.7292007576900189  0.7429626008970551  0.9373214107676344
  0.3552172310837579  0.1308760750100013  0.0170674668310379
  0.2291671372022662  0.6298455220979348  0.0175367665749140
  0.8551601225350824  0.2418328033492705  0.9373995757709445
  0.1259694205038882  0.9311666382329232  0.7274650941664395
  0.9618471166163320  0.9392654438081468  0.2274996206371263
  0.6259538769578378  0.4410153492554286  0.2271275239173010
  0.4618051903152787  0.4339032909905936  0.7271866245494643
  0.0443513541692606  0.9359347101768322  0.4775295052045510
  0.5442972060424195  0.4368508440259204  0.4770568378647301
  0.0426629162106865  0.9361468256732878  0.9774069663275325
  0.5425916190116095  0.4368729751455619  0.9772262054664930
 
  0.00000000E+00  0.00000000E+00  0.00000000E+00
  0.00000000E+00  0.00000000E+00  0.00000000E+00
  0.00000000E+00  0.00000000E+00  0.00000000E+00
  0.00000000E+00  0.00000000E+00  0.00000000E+00
  0.00000000E+00  0.00000000E+00  0.00000000E+00
  0.00000000E+00  0.00000000E+00  0.00000000E+00
  0.00000000E+00  0.00000000E+00  0.00000000E+00
  0.00000000E+00  0.00000000E+00  0.00000000E+00
  0.00000000E+00  0.00000000E+00  0.00000000E+00
  0.00000000E+00  0.00000000E+00  0.00000000E+00
  0.00000000E+00  0.00000000E+00  0.00000000E+00
  0.00000000E+00  0.00000000E+00  0.00000000E+00
  0.00000000E+00  0.00000000E+00  0.00000000E+00
  0.00000000E+00  0.00000000E+00  0.00000000E+00
  0.00000000E+00  0.00000000E+00  0.00000000E+00
  0.00000000E+00  0.00000000E+00  0.00000000E+00
  0.00000000E+00  0.00000000E+00  0.00000000E+00
  0.00000000E+00  0.00000000E+00  0.00000000E+00
  0.00000000E+00  0.00000000E+00  0.00000000E+00
  0.00000000E+00  0.00000000E+00  0.00000000E+00
