Poscar file generated with pyiron       
   1.00000000000000     
     8.4601749999999996    0.1293810000000000   -0.1510110000000000
    -0.1369490000000000    8.9822570000000006    0.2423690000000000
     0.2297150000000000   -0.3331460000000000   12.4644919999999999
   Cs   I    Pb
     4    12     4
Direct
  0.0701092800814109  0.3570292919844249  0.2253971485726396
  0.0149194346995216  0.5154748975946077  0.7255254788920737
  0.5712849998328053  0.0151323880665331  0.7247100016901911
  0.5152479210756766  0.8574343675976976  0.2245673810288764
  0.3562438387030156  0.1302438902626619  0.4347741290962404
  0.7314023921866379  0.7415869354751763  0.5154634036261569
  0.8562329375846005  0.2418938489815687  0.5148841570675842
  0.2311977633013953  0.6301160267471317  0.4353151656569523
  0.7297118973337291  0.7422872123354125  0.9349745529104467
  0.3542943135421268  0.1312367033100159  0.0153949698825215
  0.2297735281873656  0.6307375597678870  0.0148532364112484
  0.8544148827426028  0.2418639958947750  0.9353434663854756
  0.1257649783906061  0.9325380397595637  0.7252569506979469
  0.9611315357437746  0.9394380629278771  0.2252771989716678
  0.6246891620946897  0.4408819089716332  0.2247794837802886
  0.4599948188890011  0.4309499066918718  0.7247994790006587
  0.0439194189964454  0.9360763382850408  0.4752692671577989
  0.5435764854471614  0.4361141878515795  0.4749007513598755
  0.0423893113061169  0.9365571683917722  0.9751616282136979
  0.5421327877557616  0.4365920579588263  0.9747696224131630
 
  0.00000000E+00  0.00000000E+00  0.00000000E+00
  0.00000000E+00  0.00000000E+00  0.00000000E+00
  0.00000000E+00  0.00000000E+00  0.00000000E+00
  0.00000000E+00  0.00000000E+00  0.00000000E+00
  0.00000000E+00  0.00000000E+00  0.00000000E+00
  0.00000000E+00  0.00000000E+00  0.00000000E+00
  0.00000000E+00  0.00000000E+00  0.00000000E+00
  0.00000000E+00  0.00000000E+00  0.00000000E+00
  0.00000000E+00  0.00000000E+00  0.00000000E+00
  0.00000000E+00  0.00000000E+00  0.00000000E+00
  0.00000000E+00  0.00000000E+00  0.00000000E+00
  0.00000000E+00  0.00000000E+00  0.00000000E+00
  0.00000000E+00  0.00000000E+00  0.00000000E+00
  0.00000000E+00  0.00000000E+00  0.00000000E+00
  0.00000000E+00  0.00000000E+00  0.00000000E+00
  0.00000000E+00  0.00000000E+00  0.00000000E+00
  0.00000000E+00  0.00000000E+00  0.00000000E+00
  0.00000000E+00  0.00000000E+00  0.00000000E+00
  0.00000000E+00  0.00000000E+00  0.00000000E+00
  0.00000000E+00  0.00000000E+00  0.00000000E+00
