Poscar file generated with pyiron       
   1.00000000000000     
     8.8605550509745932    0.4725093405872061   -0.3364544676981564
    -0.0751866352027672    8.8227966668271485    0.5026461649612782
     0.4368738535474496   -0.5498662268418141   12.2399920992286191
   Cs   I    Pb
     4    12     4
Direct
  0.0949723487492351  0.3911369074368579  0.2098263157311738
  0.0792623964481033  0.3885647003340997  0.7186933670469504
  0.5896830675872943  0.8803239557064768  0.7220415034687853
  0.5813741530927319  0.9071104101769655  0.2342572350460506
  0.3304344355473985  0.1451120245119492  0.4608671559657473
  0.8287607100156185  0.6465044083664385  0.4828841206839956
  0.8292592451584108  0.1392017632631899  0.5381647217448566
  0.3278844122942777  0.6408442003041728  0.4010355296026768
  0.8605385980058464  0.6200308075082980  0.9579703605367824
  0.3245493954982642  0.1563220421245541  0.9786547808386671
  0.3604447157758814  0.6593088710176410  0.0381774782260346
  0.8275124666008665  0.1291332093455556  0.9032966296561322
  0.1614214807436890  0.8293251110223016  0.7197703848757311
  0.0099781605672413  0.9527445071916659  0.2183739921504394
  0.6645033075119623  0.3363003307471308  0.2223159281810715
  0.5081623733912888  0.4506477189958962  0.7208222240261839
  0.0825091314639917  0.8933257651210825  0.4697580866671234
  0.5824259856218492  0.3945213468369917  0.4712253786474326
  0.0900129618949302  0.8892509901050928  0.9697121224065982
  0.5898164405649176  0.3906474235304415  0.9709207761493185
 
  0.00000000E+00  0.00000000E+00  0.00000000E+00
  0.00000000E+00  0.00000000E+00  0.00000000E+00
  0.00000000E+00  0.00000000E+00  0.00000000E+00
  0.00000000E+00  0.00000000E+00  0.00000000E+00
  0.00000000E+00  0.00000000E+00  0.00000000E+00
  0.00000000E+00  0.00000000E+00  0.00000000E+00
  0.00000000E+00  0.00000000E+00  0.00000000E+00
  0.00000000E+00  0.00000000E+00  0.00000000E+00
  0.00000000E+00  0.00000000E+00  0.00000000E+00
  0.00000000E+00  0.00000000E+00  0.00000000E+00
  0.00000000E+00  0.00000000E+00  0.00000000E+00
  0.00000000E+00  0.00000000E+00  0.00000000E+00
  0.00000000E+00  0.00000000E+00  0.00000000E+00
  0.00000000E+00  0.00000000E+00  0.00000000E+00
  0.00000000E+00  0.00000000E+00  0.00000000E+00
  0.00000000E+00  0.00000000E+00  0.00000000E+00
  0.00000000E+00  0.00000000E+00  0.00000000E+00
  0.00000000E+00  0.00000000E+00  0.00000000E+00
  0.00000000E+00  0.00000000E+00  0.00000000E+00
  0.00000000E+00  0.00000000E+00  0.00000000E+00
