Poscar file generated with pyiron       
   1.00000000000000     
     8.4184410684349302   -0.0610013296327259   -0.2310877497934657
     0.0680986407223715    8.9952963055355806    0.3027319017733731
     0.3414085344647576   -0.4213134639176583   12.4655155020821589
   Cs   I    Pb
     4    12     4
Direct
  0.0972380565537386  0.3310371861599702  0.2155111444336455
  0.0374591058939211  0.4939628474662330  0.7154952199757684
  0.5969991846305422  0.9939845156853778  0.7150538205577832
  0.5372604911764738  0.8317686096941473  0.2149787597517058
  0.3823432630468145  0.1058577909230156  0.4250133970760673
  0.7532068219988441  0.7195839661451353  0.5053868109435805
  0.8825096549821546  0.2198524335375954  0.5048986761679866
  0.2531963584218869  0.6059050174684917  0.4257218807086413
  0.7521135699183359  0.7196405220494148  0.9248900394224574
  0.3813883194773013  0.1057765730112649  0.0049432481825159
  0.2522293740007699  0.6055055459759976  0.0050734107738003
  0.8816729807704232  0.2196033599822242  0.9260516038480390
  0.1494312897818359  0.9096633930496646  0.7152705910468133
  0.9851324628857696  0.9154227875832889  0.2152876054335361
  0.6496311963225434  0.4177570803255073  0.2150940497761029
  0.4845723443503914  0.4084314248533436  0.7151514235212240
  0.0676856156008757  0.9126376969114444  0.4652763831236834
  0.5677485736415125  0.4126815611704724  0.4651914342070608
  0.0668299549700203  0.9123685445160625  0.9652597342659033
  0.5669318736006674  0.4125877374266791  0.9651244833994661
 
  0.00000000E+00  0.00000000E+00  0.00000000E+00
  0.00000000E+00  0.00000000E+00  0.00000000E+00
  0.00000000E+00  0.00000000E+00  0.00000000E+00
  0.00000000E+00  0.00000000E+00  0.00000000E+00
  0.00000000E+00  0.00000000E+00  0.00000000E+00
  0.00000000E+00  0.00000000E+00  0.00000000E+00
  0.00000000E+00  0.00000000E+00  0.00000000E+00
  0.00000000E+00  0.00000000E+00  0.00000000E+00
  0.00000000E+00  0.00000000E+00  0.00000000E+00
  0.00000000E+00  0.00000000E+00  0.00000000E+00
  0.00000000E+00  0.00000000E+00  0.00000000E+00
  0.00000000E+00  0.00000000E+00  0.00000000E+00
  0.00000000E+00  0.00000000E+00  0.00000000E+00
  0.00000000E+00  0.00000000E+00  0.00000000E+00
  0.00000000E+00  0.00000000E+00  0.00000000E+00
  0.00000000E+00  0.00000000E+00  0.00000000E+00
  0.00000000E+00  0.00000000E+00  0.00000000E+00
  0.00000000E+00  0.00000000E+00  0.00000000E+00
  0.00000000E+00  0.00000000E+00  0.00000000E+00
  0.00000000E+00  0.00000000E+00  0.00000000E+00
