Poscar file generated with pyiron       
   1.00000000000000     
     8.8604900221975917    0.4239153841633986   -0.1751000997759827
    -0.0449306965489479    8.8440093561820454    0.4506887688692645
     0.2715420891157437   -0.6295664377720154   12.2180746575442676
   Cs   I    Pb
     4    12     4
Direct
  0.0956203910618732  0.3775150523834009  0.2033180145149837
  0.0755790439208556  0.3976812243156886  0.7035576162708208
  0.5962613409296835  0.8774770203701964  0.7464844674085725
  0.5755520898417495  0.8983371795038211  0.2464523252577569
  0.3161001492952565  0.1480133278529666  0.4588870265829137
  0.8165928102244999  0.6475446862267276  0.4911250093334460
  0.8133687624547489  0.1308527080747098  0.5438070466563327
  0.3138707452904166  0.6312613542083616  0.4057426643221648
  0.8546573774833496  0.6282077260570232  0.9589263098187023
  0.3558168247618598  0.1270546089517188  0.9901304161333254
  0.3579665974233799  0.6437260075530555  0.0439823217119289
  0.8589258431991725  0.1445264955389882  0.9062077252733062
  0.1678933985202967  0.8302568613524275  0.7216014104225498
  0.0044165467815298  0.9443128728265849  0.2216654930936806
  0.6672112876572810  0.3314910290954269  0.2278603511249730
  0.5042481764332121  0.4444169708904894  0.7279181148882666
  0.0749451693641002  0.8918518217984168  0.4734761928744498
  0.5749420027397494  0.3919525469413193  0.4761499826861108
  0.0971709766029025  0.8829587202816456  0.9733544713409754
  0.5968765282457875  0.3831643257383619  0.9759387610080145
 
  0.00000000E+00  0.00000000E+00  0.00000000E+00
  0.00000000E+00  0.00000000E+00  0.00000000E+00
  0.00000000E+00  0.00000000E+00  0.00000000E+00
  0.00000000E+00  0.00000000E+00  0.00000000E+00
  0.00000000E+00  0.00000000E+00  0.00000000E+00
  0.00000000E+00  0.00000000E+00  0.00000000E+00
  0.00000000E+00  0.00000000E+00  0.00000000E+00
  0.00000000E+00  0.00000000E+00  0.00000000E+00
  0.00000000E+00  0.00000000E+00  0.00000000E+00
  0.00000000E+00  0.00000000E+00  0.00000000E+00
  0.00000000E+00  0.00000000E+00  0.00000000E+00
  0.00000000E+00  0.00000000E+00  0.00000000E+00
  0.00000000E+00  0.00000000E+00  0.00000000E+00
  0.00000000E+00  0.00000000E+00  0.00000000E+00
  0.00000000E+00  0.00000000E+00  0.00000000E+00
  0.00000000E+00  0.00000000E+00  0.00000000E+00
  0.00000000E+00  0.00000000E+00  0.00000000E+00
  0.00000000E+00  0.00000000E+00  0.00000000E+00
  0.00000000E+00  0.00000000E+00  0.00000000E+00
  0.00000000E+00  0.00000000E+00  0.00000000E+00
