Poscar file generated with pyiron       
   1.00000000000000     
     8.4654454264225780   -0.0924135863680082   -0.1739687181033830
     0.1040354805666658    8.9800038858577391    0.1770194448244170
     0.2544366477583983   -0.2545451959056740   12.4680426956829820
   Cs   I    Pb
     4    12     4
Direct
  0.1136585653640665  0.2525406485487864  0.2118238108047636
  0.0579495625502864  0.4105620598368219  0.7120638813895037
  0.6130678171219399  0.9105753609120708  0.7118390809540647
  0.5582083920855330  0.7522551971568083  0.2115504887292174
  0.3984219765259023  0.0256604181851193  0.4215466012281766
  0.7736444250175071  0.6373988915893045  0.5017672870562210
  0.8981247493612352  0.1373354484802134  0.5018352424598530
  0.2736738693860844  0.5258888161557549  0.4215347383504846
  0.7730145654722361  0.6374652317088203  0.9215217776296573
  0.3980618288312130  0.0257865289331118  0.0018452025351427
  0.2732105236606737  0.5259759067059756  0.0018760225484833
  0.8978684990835395  0.1372930183309293  0.9213838986898537
  0.1679889709000448  0.8275402471411486  0.7116853456716378
  0.0033480611263897  0.8359767711249548  0.2116681138761791
  0.6683057477991347  0.3357186412848571  0.2115658032977245
  0.5032975232841771  0.3277213407620796  0.7115934901424853
  0.0859329360712389  0.8315218396008996  0.4615567556908176
  0.5860293067407532  0.3316355491024403  0.4615075576304333
  0.0854719507246884  0.8316941773800763  0.9616073712175487
  0.5855794973757428  0.3315899647375036  0.9614958458496450
 
  0.00000000E+00  0.00000000E+00  0.00000000E+00
  0.00000000E+00  0.00000000E+00  0.00000000E+00
  0.00000000E+00  0.00000000E+00  0.00000000E+00
  0.00000000E+00  0.00000000E+00  0.00000000E+00
  0.00000000E+00  0.00000000E+00  0.00000000E+00
  0.00000000E+00  0.00000000E+00  0.00000000E+00
  0.00000000E+00  0.00000000E+00  0.00000000E+00
  0.00000000E+00  0.00000000E+00  0.00000000E+00
  0.00000000E+00  0.00000000E+00  0.00000000E+00
  0.00000000E+00  0.00000000E+00  0.00000000E+00
  0.00000000E+00  0.00000000E+00  0.00000000E+00
  0.00000000E+00  0.00000000E+00  0.00000000E+00
  0.00000000E+00  0.00000000E+00  0.00000000E+00
  0.00000000E+00  0.00000000E+00  0.00000000E+00
  0.00000000E+00  0.00000000E+00  0.00000000E+00
  0.00000000E+00  0.00000000E+00  0.00000000E+00
  0.00000000E+00  0.00000000E+00  0.00000000E+00
  0.00000000E+00  0.00000000E+00  0.00000000E+00
  0.00000000E+00  0.00000000E+00  0.00000000E+00
  0.00000000E+00  0.00000000E+00  0.00000000E+00
