Poscar file generated with pyiron       
   1.00000000000000     
     8.4318734501211807    0.1348239725476399   -0.1009861758061177
    -0.1407254270229404    8.9831240314410898    0.5390422943253019
     0.1625328044083147   -0.7392187563930922   12.4497346807764053
   Cs   I    Pb
     4    12     4
Direct
  0.1006089632665961  0.4650578577987012  0.2181043408835829
  0.0405579934543662  0.3016608273289282  0.7178687885150181
  0.6003323544824414  0.8031908895129917  0.7174362113517355
  0.5403709738952923  0.9665475830293312  0.2169858217806713
  0.2570300630921332  0.1898403294483952  0.4277383316975059
  0.8854422427037678  0.5765424525390913  0.5083067061518532
  0.7566240304464683  0.0770890571242649  0.5072481436685381
  0.3855168030826311  0.6911644089025222  0.4274643249056075
  0.8842043114670524  0.5773531955059440  0.9272862306698032
  0.2556813978365731  0.1908571370334835  0.0076070172215855
  0.3837491245393511  0.6912171322430853  0.0075101715474685
  0.7556158945352305  0.0778599388997022  0.9278578386251798
  0.1531423534888582  0.8871001163263756  0.7178494585115403
  0.9866334697580464  0.8787420470540522  0.2178187705456854
  0.6532540331970017  0.3823319718562121  0.2175390504996325
  0.4869368065598245  0.3878932933299535  0.7175969278608861
  0.0707771612743183  0.8833963659191101  0.4678606517103651
  0.5708866386035240  0.3840426171799479  0.4676962752898338
  0.0694717558245015  0.8842171407035941  0.9678999090624623
  0.5699299463623791  0.3849422542590306  0.9675581711152350
 
  0.00000000E+00  0.00000000E+00  0.00000000E+00
  0.00000000E+00  0.00000000E+00  0.00000000E+00
  0.00000000E+00  0.00000000E+00  0.00000000E+00
  0.00000000E+00  0.00000000E+00  0.00000000E+00
  0.00000000E+00  0.00000000E+00  0.00000000E+00
  0.00000000E+00  0.00000000E+00  0.00000000E+00
  0.00000000E+00  0.00000000E+00  0.00000000E+00
  0.00000000E+00  0.00000000E+00  0.00000000E+00
  0.00000000E+00  0.00000000E+00  0.00000000E+00
  0.00000000E+00  0.00000000E+00  0.00000000E+00
  0.00000000E+00  0.00000000E+00  0.00000000E+00
  0.00000000E+00  0.00000000E+00  0.00000000E+00
  0.00000000E+00  0.00000000E+00  0.00000000E+00
  0.00000000E+00  0.00000000E+00  0.00000000E+00
  0.00000000E+00  0.00000000E+00  0.00000000E+00
  0.00000000E+00  0.00000000E+00  0.00000000E+00
  0.00000000E+00  0.00000000E+00  0.00000000E+00
  0.00000000E+00  0.00000000E+00  0.00000000E+00
  0.00000000E+00  0.00000000E+00  0.00000000E+00
  0.00000000E+00  0.00000000E+00  0.00000000E+00
