Poscar file generated with pyiron       
   1.00000000000000     
     8.3926263415760403    0.0416921108594035   -0.3053862524801843
    -0.0276788415657713    8.9933847955758992    0.4967099340745907
     0.4606842158334372   -0.6845329378989868   12.4713457097629199
   Cs   I    Pb
     4    12     4
Direct
  0.1343847571780027  0.3135188348261809  0.2191286589647865
  0.0727009890086646  0.4803942818082814  0.7190859173172547
  0.6343953905080091  0.9806983015883483  0.7187142419858614
  0.5726662296268907  0.8142964644084253  0.2185951469872286
  0.4209967873435543  0.0891001998618631  0.4292338003326855
  0.7880772552025471  0.7056144311861441  0.5085776564023701
  0.9209740211052387  0.2052295275110055  0.5083987199423501
  0.2879732308055259  0.5887357306960114  0.4293607917869857
  0.7854846453608193  0.7061502602364472  0.9299078283336196
  0.4192810199152136  0.0889873537931543  0.0080597282623933
  0.2855926242713099  0.5882625913894034  0.0080603309547916
  0.9197440384270976  0.2057353007429855  0.9297286238873779
  0.1850393692122860  0.8949894698138547  0.7190998578994280
  0.0228732573464655  0.8984458998812324  0.2190605221852802
  0.6849615214241785  0.4001215981731562  0.2185304347973677
  0.5226654598232036  0.3951086220375690  0.7185807532650158
  0.1047857851282466  0.8971357813372056  0.4690015266929892
  0.6048968297052503  0.3972316395494514  0.4685702669617113
  0.1026415768086154  0.8970748406736594  0.9690021758566377
  0.6028349164795397  0.3972254630032113  0.9686083391568199
 
  0.00000000E+00  0.00000000E+00  0.00000000E+00
  0.00000000E+00  0.00000000E+00  0.00000000E+00
  0.00000000E+00  0.00000000E+00  0.00000000E+00
  0.00000000E+00  0.00000000E+00  0.00000000E+00
  0.00000000E+00  0.00000000E+00  0.00000000E+00
  0.00000000E+00  0.00000000E+00  0.00000000E+00
  0.00000000E+00  0.00000000E+00  0.00000000E+00
  0.00000000E+00  0.00000000E+00  0.00000000E+00
  0.00000000E+00  0.00000000E+00  0.00000000E+00
  0.00000000E+00  0.00000000E+00  0.00000000E+00
  0.00000000E+00  0.00000000E+00  0.00000000E+00
  0.00000000E+00  0.00000000E+00  0.00000000E+00
  0.00000000E+00  0.00000000E+00  0.00000000E+00
  0.00000000E+00  0.00000000E+00  0.00000000E+00
  0.00000000E+00  0.00000000E+00  0.00000000E+00
  0.00000000E+00  0.00000000E+00  0.00000000E+00
  0.00000000E+00  0.00000000E+00  0.00000000E+00
  0.00000000E+00  0.00000000E+00  0.00000000E+00
  0.00000000E+00  0.00000000E+00  0.00000000E+00
  0.00000000E+00  0.00000000E+00  0.00000000E+00
