Poscar file generated with pyiron       
   1.00000000000000     
     8.4350760000000005   -0.0971690000000000   -0.3109930000000000
     0.1120790000000000    8.9831240000000001    0.4266080000000000
     0.4558620000000000   -0.6010730000000000   12.4564260000000004
   Cs   I    Pb
     4    12     4
Direct
  0.1159975583690667  0.3074695290859069  0.2190764429716268
  0.0590374295365521  0.4695492548973732  0.7187842990071687
  0.6175098571182005  0.9705295148942241  0.7184179313090482
  0.5585480504991409  0.8089275534944846  0.2179928993118310
  0.4017927528906853  0.0824172354969761  0.4281206677644533
  0.7740295426404558  0.6958657067722172  0.5086509591743322
  0.9019196777174940  0.1955435499069438  0.5081658428376343
  0.2742346877830357  0.5819962224032906  0.4289360140956688
  0.7738747333865490  0.6954033377507116  0.9275427604474729
  0.4012328121367759  0.0827006045269414  0.0084958064959366
  0.2728393770007003  0.5816401514650877  0.0084811528316848
  0.9011371283309444  0.1952041607415680  0.9294106341965005
  0.1707173523544014  0.8861220078721104  0.7184604566305453
  0.0059518876697240  0.8907654523890045  0.2185878089644291
  0.6702488583761550  0.3943203812007070  0.2182067738771494
  0.5057710372537230  0.3857127409994661  0.7182199030519101
  0.0879329499924708  0.8885143051039179  0.4686000628138416
  0.5881074727752207  0.3888854061688392  0.4681442734550814
  0.0876375870504020  0.8888081223580002  0.9683906962711220
  0.5871528097920873  0.3893574833644280  0.9683106169461908
 
  0.00000000E+00  0.00000000E+00  0.00000000E+00
  0.00000000E+00  0.00000000E+00  0.00000000E+00
  0.00000000E+00  0.00000000E+00  0.00000000E+00
  0.00000000E+00  0.00000000E+00  0.00000000E+00
  0.00000000E+00  0.00000000E+00  0.00000000E+00
  0.00000000E+00  0.00000000E+00  0.00000000E+00
  0.00000000E+00  0.00000000E+00  0.00000000E+00
  0.00000000E+00  0.00000000E+00  0.00000000E+00
  0.00000000E+00  0.00000000E+00  0.00000000E+00
  0.00000000E+00  0.00000000E+00  0.00000000E+00
  0.00000000E+00  0.00000000E+00  0.00000000E+00
  0.00000000E+00  0.00000000E+00  0.00000000E+00
  0.00000000E+00  0.00000000E+00  0.00000000E+00
  0.00000000E+00  0.00000000E+00  0.00000000E+00
  0.00000000E+00  0.00000000E+00  0.00000000E+00
  0.00000000E+00  0.00000000E+00  0.00000000E+00
  0.00000000E+00  0.00000000E+00  0.00000000E+00
  0.00000000E+00  0.00000000E+00  0.00000000E+00
  0.00000000E+00  0.00000000E+00  0.00000000E+00
  0.00000000E+00  0.00000000E+00  0.00000000E+00
