Poscar file generated with pyiron       
   1.00000000000000     
     8.4231016491323025   -0.0311005234901952   -0.2016996622469758
     0.0408968628229688    8.9983103238526194    0.1618811582872831
     0.2990312714162691   -0.2204110144182561   12.4841878073311854
   Cs   I    Pb
     4    12     4
Direct
  0.0899268571922538  0.3622979534776382  0.2391690403853274
  0.0315966044019171  0.5252381242386669  0.7389611417656998
  0.5900648106067534  0.0254140696368861  0.7389905445636110
  0.5307648064131882  0.8620016386236571  0.2389576270544436
  0.3757297501989529  0.1363094125404966  0.4497657997408897
  0.7457764309758319  0.7509842573706094  0.5284855969229102
  0.8758473006492555  0.2509341415271858  0.5289326671627554
  0.2458243669964499  0.6363849337894369  0.4492530157797071
  0.7456863552120170  0.7510732295357109  0.9495514804368755
  0.3752363858410361  0.1366006244269078  0.0287437000271307
  0.2455010430716023  0.6364225229468959  0.0288034814181477
  0.8753347599885877  0.2511003758626866  0.9491599525257641
  0.1422102809983461  0.9405309382124896  0.7392098337847134
  0.9785862820920043  0.9472481039533814  0.2392675733655605
  0.6420568480247731  0.4463404232149552  0.2390961894178089
  0.4797331156025482  0.4413930497026159  0.7391739147316485
  0.0607505353751910  0.9435655372825131  0.4892051061498742
  0.5608465940879979  0.4435735984236781  0.4891250745338185
  0.0603848339744814  0.9438065051724607  0.9892549398578355
  0.5605814779787989  0.4437743546784030  0.9891837719610304
 
  0.00000000E+00  0.00000000E+00  0.00000000E+00
  0.00000000E+00  0.00000000E+00  0.00000000E+00
  0.00000000E+00  0.00000000E+00  0.00000000E+00
  0.00000000E+00  0.00000000E+00  0.00000000E+00
  0.00000000E+00  0.00000000E+00  0.00000000E+00
  0.00000000E+00  0.00000000E+00  0.00000000E+00
  0.00000000E+00  0.00000000E+00  0.00000000E+00
  0.00000000E+00  0.00000000E+00  0.00000000E+00
  0.00000000E+00  0.00000000E+00  0.00000000E+00
  0.00000000E+00  0.00000000E+00  0.00000000E+00
  0.00000000E+00  0.00000000E+00  0.00000000E+00
  0.00000000E+00  0.00000000E+00  0.00000000E+00
  0.00000000E+00  0.00000000E+00  0.00000000E+00
  0.00000000E+00  0.00000000E+00  0.00000000E+00
  0.00000000E+00  0.00000000E+00  0.00000000E+00
  0.00000000E+00  0.00000000E+00  0.00000000E+00
  0.00000000E+00  0.00000000E+00  0.00000000E+00
  0.00000000E+00  0.00000000E+00  0.00000000E+00
  0.00000000E+00  0.00000000E+00  0.00000000E+00
  0.00000000E+00  0.00000000E+00  0.00000000E+00
