Poscar file generated with pyiron       
   1.00000000000000     
     8.4141716607143007    0.2132867118758546   -0.3727054368643581
    -0.2104815584775785    8.9855991047538577    0.4359720051982260
     0.5661711881285741   -0.5880850546066996   12.4634254929722914
   Cs   I    Pb
     4    12     4
Direct
  0.1270654083187494  0.4451478208133657  0.2376601899783268
  0.0674198427861476  0.2820409537851313  0.7375560146760324
  0.6265768094374529  0.7837579453694135  0.7365884105061670
  0.5675210916274718  0.9467370873085145  0.2366264025045646
  0.2834916647115735  0.1712972879729987  0.4477108421734464
  0.9135268321209531  0.5565100482025575  0.5270426104534512
  0.7833900584477170  0.0575602721452498  0.5263581671107012
  0.4135704203439076  0.6725478938173095  0.4474253177826077
  0.9110119719772626  0.5567685350500901  0.9472086626278801
  0.2810368702340916  0.1714904550283360  0.0268499727929524
  0.4111057511329149  0.6721252421475498  0.0267397477774312
  0.7808478390263720  0.0571541596398228  0.9477291843283291
  0.1782050953100276  0.8665690913813301  0.7373793275089940
  0.0150725246997249  0.8600857449757622  0.2373670161248558
  0.6782856831760000  0.3628739821059549  0.2368212990549364
  0.5150020912441499  0.3680490814376760  0.7367982853573442
  0.0979988988226486  0.8641297433153037  0.4871712274447123
  0.5980939055395923  0.3648570786384688  0.4869028667721981
  0.0957417750301419  0.8641419251050647  0.9872813797164233
  0.5957653496932213  0.3648840984090471  0.9868063034436212
 
  0.00000000E+00  0.00000000E+00  0.00000000E+00
  0.00000000E+00  0.00000000E+00  0.00000000E+00
  0.00000000E+00  0.00000000E+00  0.00000000E+00
  0.00000000E+00  0.00000000E+00  0.00000000E+00
  0.00000000E+00  0.00000000E+00  0.00000000E+00
  0.00000000E+00  0.00000000E+00  0.00000000E+00
  0.00000000E+00  0.00000000E+00  0.00000000E+00
  0.00000000E+00  0.00000000E+00  0.00000000E+00
  0.00000000E+00  0.00000000E+00  0.00000000E+00
  0.00000000E+00  0.00000000E+00  0.00000000E+00
  0.00000000E+00  0.00000000E+00  0.00000000E+00
  0.00000000E+00  0.00000000E+00  0.00000000E+00
  0.00000000E+00  0.00000000E+00  0.00000000E+00
  0.00000000E+00  0.00000000E+00  0.00000000E+00
  0.00000000E+00  0.00000000E+00  0.00000000E+00
  0.00000000E+00  0.00000000E+00  0.00000000E+00
  0.00000000E+00  0.00000000E+00  0.00000000E+00
  0.00000000E+00  0.00000000E+00  0.00000000E+00
  0.00000000E+00  0.00000000E+00  0.00000000E+00
  0.00000000E+00  0.00000000E+00  0.00000000E+00
