Poscar file generated with pyiron       
   1.00000000000000     
     8.4143640000000008    0.1109480000000000   -0.2103380000000000
    -0.1086590000000000    8.9966869999999997    0.1552080000000000
     0.3151070000000000   -0.2117900000000000   12.4854509999999994
   Cs   I    Pb
     4    12     4
Direct
  0.0879698703882426  0.3580052324919549  0.2239543302126492
  0.0279934566793258  0.5211264904904738  0.7240621585721527
  0.5855772771774852  0.0223649437399729  0.7246772427083528
  0.5258725459470384  0.8588427209095215  0.2246666602673315
  0.3712955962566298  0.1326310416472651  0.4351559906001015
  0.7407041769077907  0.7479422529860784  0.5135341323596876
  0.8718951705012401  0.2471666512143500  0.5142656232855600
  0.2412974826808068  0.6321865634015182  0.4345446596645957
  0.7415164781639803  0.7479784066746689  0.9351548894140223
  0.3721531850306405  0.1327888079825499  0.0134512235166611
  0.2420349913967215  0.6325262097511413  0.0140899326029285
  0.8724167218313994  0.2474731448911527  0.9340997103129425
  0.1371568872052507  0.9364332627976850  0.7239932543497289
  0.9741764229828149  0.9442419883966906  0.2239615926203555
  0.6391641790386871  0.4424233111627345  0.2244768909571278
  0.4771209541815153  0.4391783635499351  0.7244501019323764
  0.0561515270076001  0.9396038597566516  0.4739508214266195
  0.5571719966160202  0.4399363723183214  0.4740354364581734
  0.0565574647602247  0.9396299941259940  0.9741782798051233
  0.5574607443601423  0.4398495066846593  0.9744189448418297
 
  0.00000000E+00  0.00000000E+00  0.00000000E+00
  0.00000000E+00  0.00000000E+00  0.00000000E+00
  0.00000000E+00  0.00000000E+00  0.00000000E+00
  0.00000000E+00  0.00000000E+00  0.00000000E+00
  0.00000000E+00  0.00000000E+00  0.00000000E+00
  0.00000000E+00  0.00000000E+00  0.00000000E+00
  0.00000000E+00  0.00000000E+00  0.00000000E+00
  0.00000000E+00  0.00000000E+00  0.00000000E+00
  0.00000000E+00  0.00000000E+00  0.00000000E+00
  0.00000000E+00  0.00000000E+00  0.00000000E+00
  0.00000000E+00  0.00000000E+00  0.00000000E+00
  0.00000000E+00  0.00000000E+00  0.00000000E+00
  0.00000000E+00  0.00000000E+00  0.00000000E+00
  0.00000000E+00  0.00000000E+00  0.00000000E+00
  0.00000000E+00  0.00000000E+00  0.00000000E+00
  0.00000000E+00  0.00000000E+00  0.00000000E+00
  0.00000000E+00  0.00000000E+00  0.00000000E+00
  0.00000000E+00  0.00000000E+00  0.00000000E+00
  0.00000000E+00  0.00000000E+00  0.00000000E+00
  0.00000000E+00  0.00000000E+00  0.00000000E+00
