Poscar file generated with pyiron       
   1.00000000000000     
     8.4492591815049973   -0.1186445748835293   -0.2193209110810626
     0.1331917326404673    8.9838659795566880    0.2627827712352527
     0.3215441151913936   -0.3668543407837656   12.4636535306000749
   Cs   I    Pb
     4    12     4
Direct
  0.1027849163051450  0.3397994322132452  0.2259336199704324
  0.0461774613263159  0.4997983287726125  0.7258978695339144
  0.6031015920124545  0.9998689404805678  0.7259317317881087
  0.5463931174721126  0.8395808657837315  0.2260161888118400
  0.3876222155876108  0.1137796188664663  0.4357302414947052
  0.7614467760783130  0.7259008156527261  0.5159539006552257
  0.8875422669272669  0.2260054595094435  0.5158191574050670
  0.2613394605274196  0.6137024159530279  0.4358703957595286
  0.7616662815478639  0.7257235314741208  0.9357892336117665
  0.3874449173284555  0.1137231185437180  0.0160351643703316
  0.2614128330727716  0.6135954257931423  0.0159106629991852
  0.8875362855169905  0.2257914835461534  0.9359153427890760
  0.1572526727859651  0.9161368233402724  0.7259185199465746
  0.9922346839201878  0.9231467243500603  0.2259881732353873
  0.6567029106317388  0.4238231903387552  0.2259448959736517
  0.4917705860235523  0.4157409404141242  0.7260078249128649
  0.0748346080127251  0.9197725509425128  0.4760870041234397
  0.5745946014848690  0.4198805704385709  0.4760432553457913
  0.0746765464665377  0.9195062112756002  0.9761021122543737
  0.5747040958475763  0.4196314469958198  0.9758894928127682
 
  0.00000000E+00  0.00000000E+00  0.00000000E+00
  0.00000000E+00  0.00000000E+00  0.00000000E+00
  0.00000000E+00  0.00000000E+00  0.00000000E+00
  0.00000000E+00  0.00000000E+00  0.00000000E+00
  0.00000000E+00  0.00000000E+00  0.00000000E+00
  0.00000000E+00  0.00000000E+00  0.00000000E+00
  0.00000000E+00  0.00000000E+00  0.00000000E+00
  0.00000000E+00  0.00000000E+00  0.00000000E+00
  0.00000000E+00  0.00000000E+00  0.00000000E+00
  0.00000000E+00  0.00000000E+00  0.00000000E+00
  0.00000000E+00  0.00000000E+00  0.00000000E+00
  0.00000000E+00  0.00000000E+00  0.00000000E+00
  0.00000000E+00  0.00000000E+00  0.00000000E+00
  0.00000000E+00  0.00000000E+00  0.00000000E+00
  0.00000000E+00  0.00000000E+00  0.00000000E+00
  0.00000000E+00  0.00000000E+00  0.00000000E+00
  0.00000000E+00  0.00000000E+00  0.00000000E+00
  0.00000000E+00  0.00000000E+00  0.00000000E+00
  0.00000000E+00  0.00000000E+00  0.00000000E+00
  0.00000000E+00  0.00000000E+00  0.00000000E+00
