Poscar file generated with pyiron       
   1.00000000000000     
     8.4600569241545802   -0.0905198782667402   -0.2544631337744243
     0.0921607805214272    8.9839594148566082    0.2942784555236999
     0.3695748673278014   -0.4151243733239506   12.4528996245557533
   Cs   I    Pb
     4    12     4
Direct
  0.0976660852654944  0.3386343128532188  0.2199947843785836
  0.0416637237935519  0.4978927613465149  0.7195894532536175
  0.5982012135977366  0.9988559962099733  0.7198363446554462
  0.5406854192444636  0.8402216798981745  0.2199443755397399
  0.3817740574151619  0.1140011828896050  0.4293027307315014
  0.7575193741228295  0.7246046690057801  0.5113258742466972
  0.8818328258234890  0.2240203460427801  0.5092581088782696
  0.2572740497758179  0.6130160771230766  0.4301716644115253
  0.7573055941115661  0.7244651744627381  0.9284225628154694
  0.3816137666139489  0.1140235615569710  0.0107726753869557
  0.2576918153791303  0.6129778926136857  0.0101829609745952
  0.8822440487199956  0.2242802847572914  0.9301098376391185
  0.1536575990273533  0.9150967325937024  0.7201994715784701
  0.9868905244100959  0.9206808067614457  0.2200511833452784
  0.6539076406266982  0.4254269460034290  0.2198971816165352
  0.4864412475515058  0.4134337688540538  0.7199641668525115
  0.0700724610433897  0.9187094406785483  0.4702962243005753
  0.5701062162842478  0.4193649714175074  0.4699960514221540
  0.0698386620701400  0.9183260389691089  0.9701710648111840
  0.5702104017595310  0.4189883401015738  0.9700065330812665
 
  0.00000000E+00  0.00000000E+00  0.00000000E+00
  0.00000000E+00  0.00000000E+00  0.00000000E+00
  0.00000000E+00  0.00000000E+00  0.00000000E+00
  0.00000000E+00  0.00000000E+00  0.00000000E+00
  0.00000000E+00  0.00000000E+00  0.00000000E+00
  0.00000000E+00  0.00000000E+00  0.00000000E+00
  0.00000000E+00  0.00000000E+00  0.00000000E+00
  0.00000000E+00  0.00000000E+00  0.00000000E+00
  0.00000000E+00  0.00000000E+00  0.00000000E+00
  0.00000000E+00  0.00000000E+00  0.00000000E+00
  0.00000000E+00  0.00000000E+00  0.00000000E+00
  0.00000000E+00  0.00000000E+00  0.00000000E+00
  0.00000000E+00  0.00000000E+00  0.00000000E+00
  0.00000000E+00  0.00000000E+00  0.00000000E+00
  0.00000000E+00  0.00000000E+00  0.00000000E+00
  0.00000000E+00  0.00000000E+00  0.00000000E+00
  0.00000000E+00  0.00000000E+00  0.00000000E+00
  0.00000000E+00  0.00000000E+00  0.00000000E+00
  0.00000000E+00  0.00000000E+00  0.00000000E+00
  0.00000000E+00  0.00000000E+00  0.00000000E+00
