Poscar file generated with pyiron       
   1.00000000000000     
     8.4048719999999992    0.1853640000000000   -0.3567010000000000
    -0.1790920000000000    8.9892679999999991    0.5073810000000000
     0.5428950000000000   -0.6842710000000000   12.4644040000000000
   Cs   I    Pb
     4    12     4
Direct
  0.1086522511640098  0.4463949292355167  0.2335699117975878
  0.0474727347353507  0.2818284052062410  0.7333017269346840
  0.6080004507233241  0.7818661331411434  0.7322849142921939
  0.5479016736436080  0.9465759334323636  0.2322722514124180
  0.2639215321697250  0.1717497729388811  0.4434493797659300
  0.8953925101607609  0.5561171098780235  0.5224029202072131
  0.7636316013187567  0.0560128299307507  0.5218442848071021
  0.3955559110390183  0.6721706729237624  0.4435354251512607
  0.8917795054336324  0.5573225218810265  0.9427366586533310
  0.2608549172956316  0.1723965213663163  0.0225520313883720
  0.3917607962088141  0.6720841013807615  0.0222547867974683
  0.7606218665195001  0.0568338518466689  0.9431732532711905
  0.1593478356688962  0.8672642790634129  0.7332411106211154
  0.9965372686322880  0.8612148374303317  0.2332045751206877
  0.6596599307691235  0.3620517380867199  0.2324133435262326
  0.4965609217697917  0.3663140349516567  0.7323898764716148
  0.0797334887698966  0.8641442338989691  0.4831983671831566
  0.5797779661728200  0.3640047714207171  0.4825547399751500
  0.0761557912026163  0.8647613124255784  0.9832205072369007
  0.5764369085970529  0.3648522699446133  0.9825365000180639
 
  0.00000000E+00  0.00000000E+00  0.00000000E+00
  0.00000000E+00  0.00000000E+00  0.00000000E+00
  0.00000000E+00  0.00000000E+00  0.00000000E+00
  0.00000000E+00  0.00000000E+00  0.00000000E+00
  0.00000000E+00  0.00000000E+00  0.00000000E+00
  0.00000000E+00  0.00000000E+00  0.00000000E+00
  0.00000000E+00  0.00000000E+00  0.00000000E+00
  0.00000000E+00  0.00000000E+00  0.00000000E+00
  0.00000000E+00  0.00000000E+00  0.00000000E+00
  0.00000000E+00  0.00000000E+00  0.00000000E+00
  0.00000000E+00  0.00000000E+00  0.00000000E+00
  0.00000000E+00  0.00000000E+00  0.00000000E+00
  0.00000000E+00  0.00000000E+00  0.00000000E+00
  0.00000000E+00  0.00000000E+00  0.00000000E+00
  0.00000000E+00  0.00000000E+00  0.00000000E+00
  0.00000000E+00  0.00000000E+00  0.00000000E+00
  0.00000000E+00  0.00000000E+00  0.00000000E+00
  0.00000000E+00  0.00000000E+00  0.00000000E+00
  0.00000000E+00  0.00000000E+00  0.00000000E+00
  0.00000000E+00  0.00000000E+00  0.00000000E+00
