Poscar file generated with pyiron       
   1.00000000000000     
     8.3919499999999996   -0.0036030000000000   -0.2877560000000000
     0.0229750000000000    8.9862479999999998    0.5691850000000001
     0.4213990000000000   -0.7844900000000000   12.4733820000000009
   Cs   I    Pb
     4    12     4
Direct
  0.0867444440713854  0.4557744534719532  0.2099013925176507
  0.0254165458693265  0.2900071044636618  0.7098429376288422
  0.5855360917238812  0.7893823563005782  0.7093211462128508
  0.5248419246195510  0.9547461532845745  0.2094892468853402
  0.2388419034192495  0.1809833048731520  0.4207540078415235
  0.8723947100263274  0.5637872194297415  0.4983722970182214
  0.7386808227631505  0.0634523645648954  0.4983752832615167
  0.3721577706619641  0.6807251596949939  0.4209851416186794
  0.8723423060706565  0.5642861321556367  0.9203581741478715
  0.2389420406248277  0.1813555212050488  0.9986623013194773
  0.3718125678876021  0.6808654560346881  0.9982685350654492
  0.7385074787935153  0.0638301572755324  0.9205511603997465
  0.1352878906705968  0.8746960327719790  0.7095405070239451
  0.9755952456558887  0.8708972668778046  0.2095145660405819
  0.6362345394481963  0.3703607386278520  0.2095849451532814
  0.4762972340735985  0.3732983256465587  0.7095256397971994
  0.0553734714134890  0.8726155316115580  0.4595896941758539
  0.5557731217354487  0.3722870371526028  0.4594882224363062
  0.0551889030277692  0.8731290811403696  0.9595416944693653
  0.5558370833467450  0.3728959966810237  0.9596546427431747
 
  0.00000000E+00  0.00000000E+00  0.00000000E+00
  0.00000000E+00  0.00000000E+00  0.00000000E+00
  0.00000000E+00  0.00000000E+00  0.00000000E+00
  0.00000000E+00  0.00000000E+00  0.00000000E+00
  0.00000000E+00  0.00000000E+00  0.00000000E+00
  0.00000000E+00  0.00000000E+00  0.00000000E+00
  0.00000000E+00  0.00000000E+00  0.00000000E+00
  0.00000000E+00  0.00000000E+00  0.00000000E+00
  0.00000000E+00  0.00000000E+00  0.00000000E+00
  0.00000000E+00  0.00000000E+00  0.00000000E+00
  0.00000000E+00  0.00000000E+00  0.00000000E+00
  0.00000000E+00  0.00000000E+00  0.00000000E+00
  0.00000000E+00  0.00000000E+00  0.00000000E+00
  0.00000000E+00  0.00000000E+00  0.00000000E+00
  0.00000000E+00  0.00000000E+00  0.00000000E+00
  0.00000000E+00  0.00000000E+00  0.00000000E+00
  0.00000000E+00  0.00000000E+00  0.00000000E+00
  0.00000000E+00  0.00000000E+00  0.00000000E+00
  0.00000000E+00  0.00000000E+00  0.00000000E+00
  0.00000000E+00  0.00000000E+00  0.00000000E+00
