Poscar file generated with pyiron       
   1.00000000000000     
     8.8716454845964421   -0.2445002040728031   -0.2295534838335979
    -0.0908489529802542    8.8163728540642943    0.4461003209278928
     0.3479798946441181   -0.4032502691895880   12.2882379324369229
   Cs   I    Pb
     4    12     4
Direct
  0.0762683568673043  0.3398960676320080  0.2147500378977870
  0.0577580469683547  0.3547822641911825  0.7071560923597633
  0.5674152537182202  0.8662788204774188  0.7210625935036620
  0.5647290571671971  0.8293816864339533  0.2020009712603388
  0.3449078669865142  0.0709412981547069  0.3977566443880008
  0.7873264749602898  0.6254485271429947  0.5249754227665929
  0.8476790550705713  0.1291742896418255  0.4712650447875279
  0.2855017338783917  0.5664692259348462  0.4510644663133814
  0.8150402840620286  0.6000584250267202  0.8934804936068247
  0.3175873210332085  0.0937649410283398  0.0279086025673694
  0.3156691358265987  0.5958900123198146  0.9725353695522739
  0.8168331043187012  0.0976830398721533  0.9506775129582841
  0.1391036827290550  0.9079053992587207  0.7105559280459174
  0.9936667934770732  0.7861003071278678  0.2120152950209606
  0.6442950223574088  0.4006744357439062  0.2101941351374727
  0.4891380925744231  0.2948997551644712  0.7120996271570806
  0.0665041078246983  0.8475400432764743  0.4612038862913063
  0.5668396498418774  0.3478641679486125  0.4611572754660377
  0.0662895865188348  0.8466200281669483  0.9612897958163727
  0.5666539519763120  0.3470303519655269  0.9612359737881205
 
  0.00000000E+00  0.00000000E+00  0.00000000E+00
  0.00000000E+00  0.00000000E+00  0.00000000E+00
  0.00000000E+00  0.00000000E+00  0.00000000E+00
  0.00000000E+00  0.00000000E+00  0.00000000E+00
  0.00000000E+00  0.00000000E+00  0.00000000E+00
  0.00000000E+00  0.00000000E+00  0.00000000E+00
  0.00000000E+00  0.00000000E+00  0.00000000E+00
  0.00000000E+00  0.00000000E+00  0.00000000E+00
  0.00000000E+00  0.00000000E+00  0.00000000E+00
  0.00000000E+00  0.00000000E+00  0.00000000E+00
  0.00000000E+00  0.00000000E+00  0.00000000E+00
  0.00000000E+00  0.00000000E+00  0.00000000E+00
  0.00000000E+00  0.00000000E+00  0.00000000E+00
  0.00000000E+00  0.00000000E+00  0.00000000E+00
  0.00000000E+00  0.00000000E+00  0.00000000E+00
  0.00000000E+00  0.00000000E+00  0.00000000E+00
  0.00000000E+00  0.00000000E+00  0.00000000E+00
  0.00000000E+00  0.00000000E+00  0.00000000E+00
  0.00000000E+00  0.00000000E+00  0.00000000E+00
  0.00000000E+00  0.00000000E+00  0.00000000E+00
