Poscar file generated with pyiron       
   1.00000000000000     
     8.4167360000000002    0.0238170000000000   -0.2956270000000000
    -0.0110920000000000    8.9973939999999999    0.3056630000000000
     0.4380420000000000   -0.4242460000000000   12.4728600000000007
   Cs   I    Pb
     4    12     4
Direct
  0.0969445544670506  0.3485546313776382  0.2289119476774104
  0.0376013462199936  0.5109970062914257  0.7287960360144439
  0.5957704418315828  0.0106438961512296  0.7300335862116185
  0.5363422519110514  0.8478700306576101  0.2300961598569771
  0.3801457842324680  0.1222778162125877  0.4403809806393824
  0.7497872795063429  0.7371436505912925  0.5190145153844554
  0.8803488138098174  0.2368337622408916  0.5193221916898878
  0.2501534399367458  0.6220284945788279  0.4399534443313229
  0.7529644137884404  0.7370231702378405  0.9403835592260990
  0.3833338499723169  0.1219111366827406  0.0191224369879492
  0.2533547356626968  0.6227836250326817  0.0190761907239221
  0.8833618680975377  0.2375118519296748  0.9397822755467544
  0.1471888033086444  0.9267286590995170  0.7291873444809553
  0.9845628426370325  0.9335671194956632  0.2293090174767229
  0.6484298255048913  0.4323815021290898  0.2297144285973758
  0.4857738782454319  0.4268423047454633  0.7299171575601449
  0.0648592364310758  0.9295418196261878  0.4792030796879772
  0.5655808718758948  0.4291414184133799  0.4796863980113599
  0.0679293096387426  0.9297513454527220  0.9793883042380571
  0.5682701450839005  0.4294268542402051  0.9797165625504149
 
  0.00000000E+00  0.00000000E+00  0.00000000E+00
  0.00000000E+00  0.00000000E+00  0.00000000E+00
  0.00000000E+00  0.00000000E+00  0.00000000E+00
  0.00000000E+00  0.00000000E+00  0.00000000E+00
  0.00000000E+00  0.00000000E+00  0.00000000E+00
  0.00000000E+00  0.00000000E+00  0.00000000E+00
  0.00000000E+00  0.00000000E+00  0.00000000E+00
  0.00000000E+00  0.00000000E+00  0.00000000E+00
  0.00000000E+00  0.00000000E+00  0.00000000E+00
  0.00000000E+00  0.00000000E+00  0.00000000E+00
  0.00000000E+00  0.00000000E+00  0.00000000E+00
  0.00000000E+00  0.00000000E+00  0.00000000E+00
  0.00000000E+00  0.00000000E+00  0.00000000E+00
  0.00000000E+00  0.00000000E+00  0.00000000E+00
  0.00000000E+00  0.00000000E+00  0.00000000E+00
  0.00000000E+00  0.00000000E+00  0.00000000E+00
  0.00000000E+00  0.00000000E+00  0.00000000E+00
  0.00000000E+00  0.00000000E+00  0.00000000E+00
  0.00000000E+00  0.00000000E+00  0.00000000E+00
  0.00000000E+00  0.00000000E+00  0.00000000E+00
