Poscar file generated with pyiron       
   1.00000000000000     
     8.4434996503418898    0.0555169402464675   -0.1975540907073405
    -0.0599022161687592    8.9804807414012480    0.2726062639932792
     0.2955592739794663   -0.3741389979835213   12.4599229068860193
   Cs   I    Pb
     4    12     4
Direct
  0.0756306257036888  0.3530804890792528  0.2245353239330795
  0.0189127738751325  0.5131359977184862  0.7243657832091603
  0.5759512365754643  0.0114038623929260  0.7245638398530125
  0.5186365074597292  0.8513197231004223  0.2244695479623797
  0.3606358054803939  0.1251001071164075  0.4339518021428537
  0.7340970443120963  0.7375309146373024  0.5146313088601505
  0.8608387045157065  0.2384899122314075  0.5143464474899205
  0.2343404674017323  0.6259243665486798  0.4353395833068370
  0.7340733062103503  0.7385408782224184  0.9345092187900959
  0.3607311743965441  0.1258543483213549  0.0151359197087898
  0.2340602137334716  0.6265928412664508  0.0139802428083644
  0.8605775246584685  0.2392618040503254  0.9345623367456755
  0.1290301160042171  0.9298865403338871  0.7244047515378853
  0.9645020336734065  0.9362459812721721  0.2243975915450213
  0.6293978014566982  0.4360567805373553  0.2243536297405171
  0.4640539146070712  0.4264862554548843  0.7243973444851300
  0.0469598842423489  0.9319876161312036  0.4742606188205911
  0.5472552485502804  0.4312480775233181  0.4743618123756569
  0.0472922709926276  0.9329394888520665  0.9744491010176004
  0.5469813101090967  0.4323690638704131  0.9741894684214032
 
  0.00000000E+00  0.00000000E+00  0.00000000E+00
  0.00000000E+00  0.00000000E+00  0.00000000E+00
  0.00000000E+00  0.00000000E+00  0.00000000E+00
  0.00000000E+00  0.00000000E+00  0.00000000E+00
  0.00000000E+00  0.00000000E+00  0.00000000E+00
  0.00000000E+00  0.00000000E+00  0.00000000E+00
  0.00000000E+00  0.00000000E+00  0.00000000E+00
  0.00000000E+00  0.00000000E+00  0.00000000E+00
  0.00000000E+00  0.00000000E+00  0.00000000E+00
  0.00000000E+00  0.00000000E+00  0.00000000E+00
  0.00000000E+00  0.00000000E+00  0.00000000E+00
  0.00000000E+00  0.00000000E+00  0.00000000E+00
  0.00000000E+00  0.00000000E+00  0.00000000E+00
  0.00000000E+00  0.00000000E+00  0.00000000E+00
  0.00000000E+00  0.00000000E+00  0.00000000E+00
  0.00000000E+00  0.00000000E+00  0.00000000E+00
  0.00000000E+00  0.00000000E+00  0.00000000E+00
  0.00000000E+00  0.00000000E+00  0.00000000E+00
  0.00000000E+00  0.00000000E+00  0.00000000E+00
  0.00000000E+00  0.00000000E+00  0.00000000E+00
