Poscar file generated with pyiron       
   1.00000000000000     
     8.8375160596086566   -0.2405972442267177   -0.3132196643863002
    -0.1090652072960666    8.8593343542046092    0.3354612605838884
     0.2712218867034676   -0.4013875495605927   12.2864206881215807
   Cs   I    Pb
     4    12     4
Direct
  0.0752135848433573  0.3442115035628046  0.2174817775786669
  0.0691548692413121  0.3531493712247629  0.7024454992365593
  0.5676971035228833  0.8525296970243846  0.7217601819004547
  0.5780734817382456  0.8478358989642524  0.1995264823003631
  0.3439934418266969  0.0763181738033566  0.3945257123320314
  0.7993632344139027  0.6221576596044215  0.5262118520464371
  0.8478767076981217  0.1249574800484049  0.4567778936644817
  0.2953620910247283  0.5725670301002207  0.4627919028741365
  0.8318256217602373  0.5902917059868081  0.8925403935727719
  0.3143249965010902  0.1091166576239042  0.0273286386968787
  0.3355866416063850  0.6127182401058576  0.9568136676044207
  0.8109377334344348  0.0880085243426667  0.9635911179795251
  0.1353296725879097  0.9202633462708423  0.7102556729608843
  0.0095748821856153  0.7778615941530787  0.2094960329199330
  0.6386025257760375  0.4178037077167108  0.2104433126756918
  0.5060455199411096  0.2820819750418274  0.7099391501492096
  0.0718202498472610  0.8487400155638430  0.4599475431182539
  0.5719499404569010  0.3492368174532904  0.4600396728052384
  0.0728277383356632  0.8497931089758025  0.9600136170373127
  0.5728258893406656  0.3501581298311846  0.9601424477356989
 
  0.00000000E+00  0.00000000E+00  0.00000000E+00
  0.00000000E+00  0.00000000E+00  0.00000000E+00
  0.00000000E+00  0.00000000E+00  0.00000000E+00
  0.00000000E+00  0.00000000E+00  0.00000000E+00
  0.00000000E+00  0.00000000E+00  0.00000000E+00
  0.00000000E+00  0.00000000E+00  0.00000000E+00
  0.00000000E+00  0.00000000E+00  0.00000000E+00
  0.00000000E+00  0.00000000E+00  0.00000000E+00
  0.00000000E+00  0.00000000E+00  0.00000000E+00
  0.00000000E+00  0.00000000E+00  0.00000000E+00
  0.00000000E+00  0.00000000E+00  0.00000000E+00
  0.00000000E+00  0.00000000E+00  0.00000000E+00
  0.00000000E+00  0.00000000E+00  0.00000000E+00
  0.00000000E+00  0.00000000E+00  0.00000000E+00
  0.00000000E+00  0.00000000E+00  0.00000000E+00
  0.00000000E+00  0.00000000E+00  0.00000000E+00
  0.00000000E+00  0.00000000E+00  0.00000000E+00
  0.00000000E+00  0.00000000E+00  0.00000000E+00
  0.00000000E+00  0.00000000E+00  0.00000000E+00
  0.00000000E+00  0.00000000E+00  0.00000000E+00
