Poscar file generated with pyiron       
   1.00000000000000     
     8.8678715909743051    0.1479453792566864   -0.2352088601595380
     0.2311931652206072    8.8213323010575166    0.4581194933330282
     0.3072317140041004   -0.4295770699117191   12.2694464536632992
   Cs   I    Pb
     4    12     4
Direct
  0.0650193641598295  0.3432686758227474  0.2070272101739060
  0.0587115194806358  0.3590945065688446  0.7260437396579517
  0.5651444294789733  0.8528319954472836  0.7059733724801971
  0.5544938022516143  0.8537258977360329  0.2207813567769624
  0.3315591680690690  0.0823047499661806  0.4569174076872767
  0.7881212847766110  0.6258926370777275  0.4716505338190817
  0.8305740167626013  0.1218113484032698  0.5314485857993752
  0.2923047552845605  0.5868016663173303  0.3979597676457439
  0.8239204790959321  0.5883316965833054  0.9584316008118021
  0.2991918259386017  0.1129256001532142  0.9724178678280919
  0.3207197937615768  0.6091637654135196  0.0324914746890597
  0.7997612941137635  0.0916721884333777  0.8972518576808490
  0.1345208600551876  0.7915572320244177  0.7154499970219536
  0.9860589136856402  0.9118990382902897  0.2137033349602590
  0.6344421785944614  0.2901246326801322  0.2157658673468568
  0.4883669620966661  0.4152609265512183  0.7141533037671713
  0.0602379254019981  0.8531802334201191  0.4646785693267572
  0.5607172700431864  0.3534719541885655  0.4647279053257991
  0.0608940086844612  0.8510593789470988  0.9647803514740250
  0.5612405936716421  0.3513856351521684  0.9649030632871680
 
  0.00000000E+00  0.00000000E+00  0.00000000E+00
  0.00000000E+00  0.00000000E+00  0.00000000E+00
  0.00000000E+00  0.00000000E+00  0.00000000E+00
  0.00000000E+00  0.00000000E+00  0.00000000E+00
  0.00000000E+00  0.00000000E+00  0.00000000E+00
  0.00000000E+00  0.00000000E+00  0.00000000E+00
  0.00000000E+00  0.00000000E+00  0.00000000E+00
  0.00000000E+00  0.00000000E+00  0.00000000E+00
  0.00000000E+00  0.00000000E+00  0.00000000E+00
  0.00000000E+00  0.00000000E+00  0.00000000E+00
  0.00000000E+00  0.00000000E+00  0.00000000E+00
  0.00000000E+00  0.00000000E+00  0.00000000E+00
  0.00000000E+00  0.00000000E+00  0.00000000E+00
  0.00000000E+00  0.00000000E+00  0.00000000E+00
  0.00000000E+00  0.00000000E+00  0.00000000E+00
  0.00000000E+00  0.00000000E+00  0.00000000E+00
  0.00000000E+00  0.00000000E+00  0.00000000E+00
  0.00000000E+00  0.00000000E+00  0.00000000E+00
  0.00000000E+00  0.00000000E+00  0.00000000E+00
  0.00000000E+00  0.00000000E+00  0.00000000E+00
