Poscar file generated with pyiron       
   1.00000000000000     
     8.8653193751064236    0.4261920050167595   -0.4570571172680863
    -0.0784489431977126    8.8119355195200484    0.3766361946533298
     0.6984082857862111   -0.5945648912308601   12.2478094240906454
   Cs   I    Pb
     4    12     4
Direct
  0.1007320153133421  0.3861841390183017  0.2284461227665642
  0.0797902359541384  0.3626515858121188  0.7259868985792968
  0.6007847685779650  0.8446923259492625  0.7557717698881168
  0.5808249441632933  0.9021167664206994  0.2507663849576515
  0.3073160425019266  0.1507110954723914  0.4667757671526321
  0.8532037887816452  0.6039794658548029  0.5057173065835966
  0.8062461528215744  0.0973313824857833  0.5521143427963831
  0.3476433359309457  0.6374306213605757  0.4224521435818310
  0.8669642366173231  0.6030985564465009  0.9678571291422547
  0.3383128929356766  0.1326042435876236  0.0081948612053450
  0.3675184611816331  0.6420843949622056  0.0534669113303973
  0.8420667350350114  0.1148200077949589  0.9213291830140542
  0.1721101924544194  0.8214614088368517  0.7354260886421532
  0.0096369620151614  0.9253450734944288  0.2361466628541505
  0.6742666628338750  0.3278181987313399  0.2392285356803552
  0.5073938984370076  0.4184118344419011  0.7400590274302917
  0.0844260954987607  0.8752118797742862  0.4869017142520622
  0.5847232744351901  0.3744413612015603  0.4890933577862276
  0.0973590175895109  0.8714028548308256  0.9869538567528384
  0.5970485485426459  0.3713917092536531  0.9891338200246094
 
  0.00000000E+00  0.00000000E+00  0.00000000E+00
  0.00000000E+00  0.00000000E+00  0.00000000E+00
  0.00000000E+00  0.00000000E+00  0.00000000E+00
  0.00000000E+00  0.00000000E+00  0.00000000E+00
  0.00000000E+00  0.00000000E+00  0.00000000E+00
  0.00000000E+00  0.00000000E+00  0.00000000E+00
  0.00000000E+00  0.00000000E+00  0.00000000E+00
  0.00000000E+00  0.00000000E+00  0.00000000E+00
  0.00000000E+00  0.00000000E+00  0.00000000E+00
  0.00000000E+00  0.00000000E+00  0.00000000E+00
  0.00000000E+00  0.00000000E+00  0.00000000E+00
  0.00000000E+00  0.00000000E+00  0.00000000E+00
  0.00000000E+00  0.00000000E+00  0.00000000E+00
  0.00000000E+00  0.00000000E+00  0.00000000E+00
  0.00000000E+00  0.00000000E+00  0.00000000E+00
  0.00000000E+00  0.00000000E+00  0.00000000E+00
  0.00000000E+00  0.00000000E+00  0.00000000E+00
  0.00000000E+00  0.00000000E+00  0.00000000E+00
  0.00000000E+00  0.00000000E+00  0.00000000E+00
  0.00000000E+00  0.00000000E+00  0.00000000E+00
