Poscar file generated with pyiron       
   1.00000000000000     
     8.8956398260839276    0.1899640925264872   -0.1949699134268861
     0.0984721241849523    8.7953459229497248    0.4285640983067870
     0.2871616058819331   -0.6248544948539327   12.2736279062008382
   Cs   I    Pb
     4    12     4
Direct
  0.1085426046856457  0.3649001076124616  0.1937014147367699
  0.0829379189681765  0.4310124578705909  0.6929155322529382
  0.6065672485391579  0.9170258188075913  0.7190138797969562
  0.5850115228747755  0.8841283630047753  0.2189858709381768
  0.3520931663083276  0.1354433481570372  0.4325214287466654
  0.8139854090335997  0.6747309652789155  0.4842363190396305
  0.8493157019339107  0.1618744758573227  0.5211809341348315
  0.3147346609446225  0.6265703094749429  0.3940319295677054
  0.8366945591947066  0.6653620620157739  0.9314760609800535
  0.3793320472618772  0.1216854883479227  0.9833818005274668
  0.3406558874332094  0.6342891425315962  0.0223263871491573
  0.8797534759458725  0.1732304067988015  0.8957682772521344
  0.1823563205749201  0.8582752886696945  0.7053598395959276
  0.0101647047826650  0.9372845012638412  0.2055596800021501
  0.6804431930517837  0.3565334268667668  0.2100724238496565
  0.5112100335092745  0.4407316053929642  0.7102330727264190
  0.0891580645062166  0.9003007713117454  0.4562140777266626
  0.5887420233605273  0.4014296469072782  0.4589914635581611
  0.1028818686131299  0.8967472217407052  0.9559804807434895
  0.6028829703557794  0.3971942338070918  0.9590369086850820
 
  0.00000000E+00  0.00000000E+00  0.00000000E+00
  0.00000000E+00  0.00000000E+00  0.00000000E+00
  0.00000000E+00  0.00000000E+00  0.00000000E+00
  0.00000000E+00  0.00000000E+00  0.00000000E+00
  0.00000000E+00  0.00000000E+00  0.00000000E+00
  0.00000000E+00  0.00000000E+00  0.00000000E+00
  0.00000000E+00  0.00000000E+00  0.00000000E+00
  0.00000000E+00  0.00000000E+00  0.00000000E+00
  0.00000000E+00  0.00000000E+00  0.00000000E+00
  0.00000000E+00  0.00000000E+00  0.00000000E+00
  0.00000000E+00  0.00000000E+00  0.00000000E+00
  0.00000000E+00  0.00000000E+00  0.00000000E+00
  0.00000000E+00  0.00000000E+00  0.00000000E+00
  0.00000000E+00  0.00000000E+00  0.00000000E+00
  0.00000000E+00  0.00000000E+00  0.00000000E+00
  0.00000000E+00  0.00000000E+00  0.00000000E+00
  0.00000000E+00  0.00000000E+00  0.00000000E+00
  0.00000000E+00  0.00000000E+00  0.00000000E+00
  0.00000000E+00  0.00000000E+00  0.00000000E+00
  0.00000000E+00  0.00000000E+00  0.00000000E+00
