Poscar file generated with pyiron       
   1.00000000000000     
     8.3769700000000000    0.0334240000000000   -0.3013150000000000
    -0.0258800000000000    9.0095010000000002    0.2761480000000000
     0.4475800000000000   -0.3757330000000000   12.4895060000000004
   Cs   I    Pb
     4    12     4
Direct
  0.0958169253088172  0.3520120357760135  0.2256951524541293
  0.0323746020292504  0.5194897439646411  0.7256668917368998
  0.5942417020276167  0.0192954377824179  0.7271616713524836
  0.5307587008917523  0.8518505668737220  0.2270418713824185
  0.3790820449908239  0.1272334211261992  0.4374729974247629
  0.7441659977790351  0.7447596235864040  0.5158004752786169
  0.8793098782484208  0.2443518553054744  0.5155343669549595
  0.2442661545341949  0.6267999293960855  0.4372011057529264
  0.7476972785385030  0.7446017785436325  0.9376881954981613
  0.3821473945632832  0.1273340561784266  0.0161924573280672
  0.2476429240884954  0.6277146844873727  0.0157349856633147
  0.8821969989353775  0.2451607403074263  0.9371049071640201
  0.1435808252544390  0.9339851402260422  0.7260858044996112
  0.9814717989128567  0.9382739924598269  0.2260627899112464
  0.6451265279285465  0.4382730517803068  0.2267678028176050
  0.4830819850714576  0.4340026029591613  0.7267545199786198
  0.0614395792515907  0.9356529188014306  0.4759260028829644
  0.5619267564091288  0.4355535523426965  0.4765901913565642
  0.0649532938194710  0.9361525909851380  0.9762345131319279
  0.5651384109555551  0.4361594445323007  0.9768035316000550
 
  0.00000000E+00  0.00000000E+00  0.00000000E+00
  0.00000000E+00  0.00000000E+00  0.00000000E+00
  0.00000000E+00  0.00000000E+00  0.00000000E+00
  0.00000000E+00  0.00000000E+00  0.00000000E+00
  0.00000000E+00  0.00000000E+00  0.00000000E+00
  0.00000000E+00  0.00000000E+00  0.00000000E+00
  0.00000000E+00  0.00000000E+00  0.00000000E+00
  0.00000000E+00  0.00000000E+00  0.00000000E+00
  0.00000000E+00  0.00000000E+00  0.00000000E+00
  0.00000000E+00  0.00000000E+00  0.00000000E+00
  0.00000000E+00  0.00000000E+00  0.00000000E+00
  0.00000000E+00  0.00000000E+00  0.00000000E+00
  0.00000000E+00  0.00000000E+00  0.00000000E+00
  0.00000000E+00  0.00000000E+00  0.00000000E+00
  0.00000000E+00  0.00000000E+00  0.00000000E+00
  0.00000000E+00  0.00000000E+00  0.00000000E+00
  0.00000000E+00  0.00000000E+00  0.00000000E+00
  0.00000000E+00  0.00000000E+00  0.00000000E+00
  0.00000000E+00  0.00000000E+00  0.00000000E+00
  0.00000000E+00  0.00000000E+00  0.00000000E+00
