Poscar file generated with pyiron       
   1.00000000000000     
     8.8684349999999998    0.4192520000000000   -0.4474060000000000
    -0.0577040000000000    8.8272809999999993    0.3357530000000000
     0.6772530000000000   -0.5346310000000000   12.2350899999999996
   Cs   I    Pb
     4    12     4
Direct
  0.1020401644436717  0.3773050750838749  0.2210615728714131
  0.0796807793533389  0.3698151340595004  0.7179033430802022
  0.6024661162887597  0.8481260455430331  0.7560081798956801
  0.5826313125178970  0.8950602678354258  0.2512637792969699
  0.3098321940584796  0.1462359844537104  0.4637962268339635
  0.8436380605566356  0.6118871057088811  0.5011497338622561
  0.8084678403292074  0.1002383334316121  0.5507821215382620
  0.3398599437937548  0.6302716672544975  0.4177019389462870
  0.8665061740502509  0.6053639036720142  0.9657652660647713
  0.3489060994022424  0.1235214143422709  0.0051714754127659
  0.3677996626952833  0.6365856049240364  0.0512526537288807
  0.8521279212632464  0.1193620625830931  0.9168245979238208
  0.1743386093711266  0.8186402833884188  0.7318090839073648
  0.0108208087070096  0.9262836303015405  0.2324984107428989
  0.6753618275908266  0.3224394929792993  0.2368289115759197
  0.5078126966184655  0.4197388460219642  0.7375848792377653
  0.0837277842330550  0.8747810921213599  0.4836976021203014
  0.5834541672251774  0.3737047798033544  0.4863121303089315
  0.1008553388769258  0.8695214694339768  0.9837764928422672
  0.6006091118776595  0.3689518371099112  0.9862883610351716
 
  0.00000000E+00  0.00000000E+00  0.00000000E+00
  0.00000000E+00  0.00000000E+00  0.00000000E+00
  0.00000000E+00  0.00000000E+00  0.00000000E+00
  0.00000000E+00  0.00000000E+00  0.00000000E+00
  0.00000000E+00  0.00000000E+00  0.00000000E+00
  0.00000000E+00  0.00000000E+00  0.00000000E+00
  0.00000000E+00  0.00000000E+00  0.00000000E+00
  0.00000000E+00  0.00000000E+00  0.00000000E+00
  0.00000000E+00  0.00000000E+00  0.00000000E+00
  0.00000000E+00  0.00000000E+00  0.00000000E+00
  0.00000000E+00  0.00000000E+00  0.00000000E+00
  0.00000000E+00  0.00000000E+00  0.00000000E+00
  0.00000000E+00  0.00000000E+00  0.00000000E+00
  0.00000000E+00  0.00000000E+00  0.00000000E+00
  0.00000000E+00  0.00000000E+00  0.00000000E+00
  0.00000000E+00  0.00000000E+00  0.00000000E+00
  0.00000000E+00  0.00000000E+00  0.00000000E+00
  0.00000000E+00  0.00000000E+00  0.00000000E+00
  0.00000000E+00  0.00000000E+00  0.00000000E+00
  0.00000000E+00  0.00000000E+00  0.00000000E+00
