Poscar file generated with pyiron       
   1.00000000000000     
     8.8581238160469553    0.4399343671522447   -0.4183999730760227
    -0.0914831523185642    8.8244333570739695    0.3570300854630503
     0.5599475110836765   -0.4229241186886825   12.2294792503793879
   Cs   I    Pb
     4    12     4
Direct
  0.1120141500599181  0.3715388830746594  0.2115236666955479
  0.0872886781128327  0.3693659506898107  0.7135625487435164
  0.6092313267686904  0.8472809248743860  0.7512996389386569
  0.5869193550047443  0.8940658359153172  0.2551193673205298
  0.3209604749755540  0.1392409814806958  0.4605789689504302
  0.8369773638177003  0.6227440340529384  0.5017224432698740
  0.8198283976099264  0.1062472601328065  0.5476685740806752
  0.3347256635891497  0.6226531101827640  0.4134168220953593
  0.8815479414299112  0.5970474011503916  0.9589021054190759
  0.3529184821394134  0.1260937930915217  0.9997240948571228
  0.3840324436821783  0.6402702159182405  0.0466574618014847
  0.8568456288578783  0.1146396061783183  0.9131505813460571
  0.1812366990940374  0.8184342943653071  0.7279497000341258
  0.0149395511962235  0.9228677622349768  0.2272294279215614
  0.6845106997997482  0.3221396445277667  0.2344867965463951
  0.5144487509557497  0.4186802075689244  0.7336880304851335
  0.0877660426462437  0.8746005089085147  0.4794586579257477
  0.5881996185390976  0.3745285513947530  0.4827023353425017
  0.1092632017011439  0.8667583561377551  0.9796467056936408
  0.6097170692361610  0.3670646867888473  0.9829464258613225
 
  0.00000000E+00  0.00000000E+00  0.00000000E+00
  0.00000000E+00  0.00000000E+00  0.00000000E+00
  0.00000000E+00  0.00000000E+00  0.00000000E+00
  0.00000000E+00  0.00000000E+00  0.00000000E+00
  0.00000000E+00  0.00000000E+00  0.00000000E+00
  0.00000000E+00  0.00000000E+00  0.00000000E+00
  0.00000000E+00  0.00000000E+00  0.00000000E+00
  0.00000000E+00  0.00000000E+00  0.00000000E+00
  0.00000000E+00  0.00000000E+00  0.00000000E+00
  0.00000000E+00  0.00000000E+00  0.00000000E+00
  0.00000000E+00  0.00000000E+00  0.00000000E+00
  0.00000000E+00  0.00000000E+00  0.00000000E+00
  0.00000000E+00  0.00000000E+00  0.00000000E+00
  0.00000000E+00  0.00000000E+00  0.00000000E+00
  0.00000000E+00  0.00000000E+00  0.00000000E+00
  0.00000000E+00  0.00000000E+00  0.00000000E+00
  0.00000000E+00  0.00000000E+00  0.00000000E+00
  0.00000000E+00  0.00000000E+00  0.00000000E+00
  0.00000000E+00  0.00000000E+00  0.00000000E+00
  0.00000000E+00  0.00000000E+00  0.00000000E+00
