Poscar file generated with pyiron       
   1.00000000000000     
     8.8594378476626154    0.4965773358683810   -0.2572709919172271
    -0.0979904019350421    8.8383014221200167    0.4710958491567677
     0.3355463047168202   -0.5605016024944438   12.2343717076219782
   Cs   I    Pb
     4    12     4
Direct
  0.0977392535029138  0.3844037265128703  0.2080004450749446
  0.0813535107618478  0.3920643668227291  0.7142513720506933
  0.5928172897632469  0.8802069773320339  0.7354474982391264
  0.5807546727788778  0.9013867677806546  0.2424170365228792
  0.3276863493503098  0.1440558197671671  0.4641981773605858
  0.8243513692643559  0.6472999346455142  0.4874229472623809
  0.8247973863175784  0.1352038781008608  0.5434188534722136
  0.3221497264107221  0.6346712197294292  0.4054693512613949
  0.8585319793397351  0.6247719846114399  0.9609241262195614
  0.3400048119100719  0.1434090967332476  0.9832639758802212
  0.3606323874937284  0.6522748441860190  0.0430113041393577
  0.8433015184987059  0.1369957079346771  0.9058771226120979
  0.1642936802275401  0.8282365064755712  0.7230363759380423
  0.0097869601058008  0.9500268915004754  0.2219391610267755
  0.6672745029816153  0.3318346813474944  0.2267241988077315
  0.5100623461903790  0.4494746316795998  0.7256743866697154
  0.0808882090834851  0.8921159163393528  0.4736363335056860
  0.5814084045970069  0.3927282439598005  0.4752737499902661
  0.0942975042853953  0.8867852264617843  0.9736079781836642
  0.5946057665360226  0.3876714253310335  0.9752277741776869
 
  0.00000000E+00  0.00000000E+00  0.00000000E+00
  0.00000000E+00  0.00000000E+00  0.00000000E+00
  0.00000000E+00  0.00000000E+00  0.00000000E+00
  0.00000000E+00  0.00000000E+00  0.00000000E+00
  0.00000000E+00  0.00000000E+00  0.00000000E+00
  0.00000000E+00  0.00000000E+00  0.00000000E+00
  0.00000000E+00  0.00000000E+00  0.00000000E+00
  0.00000000E+00  0.00000000E+00  0.00000000E+00
  0.00000000E+00  0.00000000E+00  0.00000000E+00
  0.00000000E+00  0.00000000E+00  0.00000000E+00
  0.00000000E+00  0.00000000E+00  0.00000000E+00
  0.00000000E+00  0.00000000E+00  0.00000000E+00
  0.00000000E+00  0.00000000E+00  0.00000000E+00
  0.00000000E+00  0.00000000E+00  0.00000000E+00
  0.00000000E+00  0.00000000E+00  0.00000000E+00
  0.00000000E+00  0.00000000E+00  0.00000000E+00
  0.00000000E+00  0.00000000E+00  0.00000000E+00
  0.00000000E+00  0.00000000E+00  0.00000000E+00
  0.00000000E+00  0.00000000E+00  0.00000000E+00
  0.00000000E+00  0.00000000E+00  0.00000000E+00
