Poscar file generated with pyiron       
   1.00000000000000     
     8.5000928143285339    0.1029818184197516   -0.2027143436583534
    -0.0908499632668915    8.9522584618803567    0.3782285150821887
     0.3015118125881867   -0.5191777373556050   12.4289841779966022
   Cs   I    Pb
     4    12     4
Direct
  0.1114687118902859  0.3367038556641281  0.2082262485596558
  0.0600141995483312  0.4886934943464615  0.7083734218847223
  0.6109630658210229  0.9891022956920578  0.7070884106716924
  0.5594014141395329  0.8363562907084573  0.2071667461799314
  0.3957784381761565  0.1085966167728841  0.4173977936568739
  0.7768814933373862  0.7162015438489400  0.4979499403103917
  0.8962271011436522  0.2166060648088770  0.4988635019827451
  0.2773831103163690  0.6091900809505136  0.4165913758896849
  0.7754470058417554  0.7164006631823890  0.9168597632209817
  0.3938456612560539  0.1091949928265605  0.9977067772591232
  0.2751988417680409  0.6090163911889883  0.9988674206469177
  0.8935960176243077  0.2161075314904155  0.9167534128980745
  0.1688062909191200  0.9062355263455668  0.7077583864668816
  0.0014572567135832  0.9193865357273936  0.2077502645409108
  0.6687805370669144  0.4174725137434889  0.2072387474366749
  0.5025714944411827  0.4082243075046469  0.7072288915732612
  0.0861145599144538  0.9122729370307350  0.4576769994153245
  0.5867081697744557  0.4122821034446437  0.4572560530403294
  0.0845807137873367  0.9128057083692134  0.9577397404381480
  0.5845306833033216  0.4128550455306862  0.9572939805492654
 
  0.00000000E+00  0.00000000E+00  0.00000000E+00
  0.00000000E+00  0.00000000E+00  0.00000000E+00
  0.00000000E+00  0.00000000E+00  0.00000000E+00
  0.00000000E+00  0.00000000E+00  0.00000000E+00
  0.00000000E+00  0.00000000E+00  0.00000000E+00
  0.00000000E+00  0.00000000E+00  0.00000000E+00
  0.00000000E+00  0.00000000E+00  0.00000000E+00
  0.00000000E+00  0.00000000E+00  0.00000000E+00
  0.00000000E+00  0.00000000E+00  0.00000000E+00
  0.00000000E+00  0.00000000E+00  0.00000000E+00
  0.00000000E+00  0.00000000E+00  0.00000000E+00
  0.00000000E+00  0.00000000E+00  0.00000000E+00
  0.00000000E+00  0.00000000E+00  0.00000000E+00
  0.00000000E+00  0.00000000E+00  0.00000000E+00
  0.00000000E+00  0.00000000E+00  0.00000000E+00
  0.00000000E+00  0.00000000E+00  0.00000000E+00
  0.00000000E+00  0.00000000E+00  0.00000000E+00
  0.00000000E+00  0.00000000E+00  0.00000000E+00
  0.00000000E+00  0.00000000E+00  0.00000000E+00
  0.00000000E+00  0.00000000E+00  0.00000000E+00
