Poscar file generated with pyiron       
   1.00000000000000     
     8.4583847407982837   -0.0550774378267175   -0.2364610435847028
     0.0671989756410974    8.9773765480032921    0.2451055066058155
     0.3476973525325714   -0.3499539602512605   12.4757966057354768
   Cs   I    Pb
     4    12     4
Direct
  0.0950694172711122  0.3424899274437289  0.2287085296761385
  0.0416195127726781  0.4999308866459541  0.7287564055339912
  0.5944009204649501  0.9978311405647680  0.7305484420045495
  0.5397985550208312  0.8401162078266320  0.2301505805394942
  0.3789533959597072  0.1143578514525399  0.4396160466597638
  0.7542753781784763  0.7259259107828719  0.5194134421516257
  0.8795196900489688  0.2265094229955038  0.5190696989079314
  0.2541229748668756  0.6143919829488935  0.4400676184139563
  0.7571147283473333  0.7267076821250206  0.9410564144034228
  0.3822470214521640  0.1144734752738949  0.0194807418054372
  0.2569460896463249  0.6149504273009844  0.0185991622173141
  0.8826118744515942  0.2272406452665430  0.9395128999343441
  0.1473041475084422  0.9184331395523181  0.7295915324979813
  0.9861700545001647  0.9248681208380444  0.2295526660658989
  0.6482167353002375  0.4218361767904574  0.2302233179705499
  0.4884515588324763  0.4163723679100269  0.7302185416550993
  0.0666990662475568  0.9204242015323940  0.4794113617762111
  0.5667679309908255  0.4199158698087371  0.4801308723514129
  0.0696526041797740  0.9211026399877074  0.9798096775922450
  0.5700045507105119  0.4208348451628879  0.9800739996295156
 
  0.00000000E+00  0.00000000E+00  0.00000000E+00
  0.00000000E+00  0.00000000E+00  0.00000000E+00
  0.00000000E+00  0.00000000E+00  0.00000000E+00
  0.00000000E+00  0.00000000E+00  0.00000000E+00
  0.00000000E+00  0.00000000E+00  0.00000000E+00
  0.00000000E+00  0.00000000E+00  0.00000000E+00
  0.00000000E+00  0.00000000E+00  0.00000000E+00
  0.00000000E+00  0.00000000E+00  0.00000000E+00
  0.00000000E+00  0.00000000E+00  0.00000000E+00
  0.00000000E+00  0.00000000E+00  0.00000000E+00
  0.00000000E+00  0.00000000E+00  0.00000000E+00
  0.00000000E+00  0.00000000E+00  0.00000000E+00
  0.00000000E+00  0.00000000E+00  0.00000000E+00
  0.00000000E+00  0.00000000E+00  0.00000000E+00
  0.00000000E+00  0.00000000E+00  0.00000000E+00
  0.00000000E+00  0.00000000E+00  0.00000000E+00
  0.00000000E+00  0.00000000E+00  0.00000000E+00
  0.00000000E+00  0.00000000E+00  0.00000000E+00
  0.00000000E+00  0.00000000E+00  0.00000000E+00
  0.00000000E+00  0.00000000E+00  0.00000000E+00
