Poscar file generated with pyiron       
   1.00000000000000     
     8.8505870513689207   -0.2484507554688828   -0.1650006553721069
    -0.0553051871661079    8.8223253706731413    0.1708469767232355
     0.2442416971526963   -0.1900783565970843   12.3175340370269879
   Cs   I    Pb
     4    12     4
Direct
  0.0975473814489219  0.3104731903856926  0.2114768794478824
  0.0736557230485320  0.3561380146176017  0.7103429747925968
  0.5913574157068259  0.8689456133971173  0.7126821374910460
  0.5810256269800221  0.7994655409654570  0.2067280904016115
  0.3654857799316188  0.0538043623533355  0.3981231636970369
  0.8064211438346971  0.6120500687878097  0.5227137204218998
  0.8676099382417276  0.1153835990690889  0.4772634177267238
  0.3038296106502757  0.5506332717619846  0.4440147381615970
  0.8126207127200716  0.6074435969445630  0.8972274621969105
  0.3580149881908501  0.0610864020817398  0.0236251039634283
  0.3102231945019782  0.5582652445456222  0.9777334824228175
  0.8603600558770915  0.1094313197881269  0.9435189129446891
  0.1606481802355027  0.8880894816023230  0.7101280886265471
  0.0114678609872319  0.7794464770691178  0.2104874008572536
  0.6669721743681174  0.3768538544651497  0.2102223266742895
  0.5046436135143203  0.2912424923763845  0.7107218837361738
  0.0857646641140598  0.8329107202267134  0.4603286856881427
  0.5857554337387794  0.3330782647993191  0.4603220578924364
  0.0856020356140237  0.8340518827329900  0.9601748858791980
  0.5854009425376551  0.3341507899800426  0.9604542175263533
 
  0.00000000E+00  0.00000000E+00  0.00000000E+00
  0.00000000E+00  0.00000000E+00  0.00000000E+00
  0.00000000E+00  0.00000000E+00  0.00000000E+00
  0.00000000E+00  0.00000000E+00  0.00000000E+00
  0.00000000E+00  0.00000000E+00  0.00000000E+00
  0.00000000E+00  0.00000000E+00  0.00000000E+00
  0.00000000E+00  0.00000000E+00  0.00000000E+00
  0.00000000E+00  0.00000000E+00  0.00000000E+00
  0.00000000E+00  0.00000000E+00  0.00000000E+00
  0.00000000E+00  0.00000000E+00  0.00000000E+00
  0.00000000E+00  0.00000000E+00  0.00000000E+00
  0.00000000E+00  0.00000000E+00  0.00000000E+00
  0.00000000E+00  0.00000000E+00  0.00000000E+00
  0.00000000E+00  0.00000000E+00  0.00000000E+00
  0.00000000E+00  0.00000000E+00  0.00000000E+00
  0.00000000E+00  0.00000000E+00  0.00000000E+00
  0.00000000E+00  0.00000000E+00  0.00000000E+00
  0.00000000E+00  0.00000000E+00  0.00000000E+00
  0.00000000E+00  0.00000000E+00  0.00000000E+00
  0.00000000E+00  0.00000000E+00  0.00000000E+00
