Poscar file generated with pyiron       
   1.00000000000000     
     8.9009408886763772    0.1424684866873287   -0.2744709710667132
     0.1478989737042816    8.7795331288261824    0.5889459799128064
     0.3587716690355042   -0.7646444364742689   12.2639805636447079
   Cs   I    Pb
     4    12     4
Direct
  0.0651545899408301  0.3898729515818824  0.1948621971761858
  0.0443841549838173  0.3581611703838460  0.6966913217237822
  0.5672169158169378  0.8417070951049769  0.7230207874779631
  0.5411151898193959  0.9055073549226200  0.2252880893050239
  0.2737025655237778  0.1478586031657177  0.4309004176219324
  0.8077427297276253  0.6127120095180416  0.4855384273415846
  0.7744322949338601  0.1027586544206760  0.5215019161646072
  0.3044294367604942  0.6343517568524657  0.3944468782663264
  0.8391785371926299  0.5958380601294134  0.9306213827210201
  0.2953650599642826  0.1406899668451833  0.9838928709817300
  0.3394910009126166  0.6491816325560030  0.0203136663977701
  0.7991979930485854  0.1099706281439392  0.8948401864109069
  0.1396259184936602  0.8346193172569791  0.7058708642596460
  0.9687169798409073  0.9131825642611726  0.2052384405077378
  0.6414352309189510  0.3341962835704992  0.2108843378604244
  0.4683579293460939  0.4133740136347790  0.7102094073044029
  0.0469368643777635  0.8760214358191426  0.4567169362282846
  0.5474630887859985  0.3755958779884943  0.4598621999157458
  0.0616149195090430  0.8720243378283773  0.9567387466076224
  0.5615580084859390  0.3724489544146449  0.9600551854054896
 
  0.00000000E+00  0.00000000E+00  0.00000000E+00
  0.00000000E+00  0.00000000E+00  0.00000000E+00
  0.00000000E+00  0.00000000E+00  0.00000000E+00
  0.00000000E+00  0.00000000E+00  0.00000000E+00
  0.00000000E+00  0.00000000E+00  0.00000000E+00
  0.00000000E+00  0.00000000E+00  0.00000000E+00
  0.00000000E+00  0.00000000E+00  0.00000000E+00
  0.00000000E+00  0.00000000E+00  0.00000000E+00
  0.00000000E+00  0.00000000E+00  0.00000000E+00
  0.00000000E+00  0.00000000E+00  0.00000000E+00
  0.00000000E+00  0.00000000E+00  0.00000000E+00
  0.00000000E+00  0.00000000E+00  0.00000000E+00
  0.00000000E+00  0.00000000E+00  0.00000000E+00
  0.00000000E+00  0.00000000E+00  0.00000000E+00
  0.00000000E+00  0.00000000E+00  0.00000000E+00
  0.00000000E+00  0.00000000E+00  0.00000000E+00
  0.00000000E+00  0.00000000E+00  0.00000000E+00
  0.00000000E+00  0.00000000E+00  0.00000000E+00
  0.00000000E+00  0.00000000E+00  0.00000000E+00
  0.00000000E+00  0.00000000E+00  0.00000000E+00
