Poscar file generated with pyiron       
   1.00000000000000     
     8.4176313471649227   -0.0448357151643491   -0.1873062974514790
     0.0481120700888280    8.9972328833709891    0.2795723792451235
     0.2788134449042580   -0.3863670300248506   12.4813374749327934
   Cs   I    Pb
     4    12     4
Direct
  0.1032807582069143  0.3345347763039410  0.2110831291599742
  0.0445209059574463  0.4975590734174131  0.7109168850372680
  0.6045753643180662  0.9973954837782497  0.7108795065538827
  0.5448850821211665  0.8344662777711125  0.2104397382929314
  0.3896369704211852  0.1085132196943061  0.4206203031244406
  0.7595356251428855  0.7231900414941123  0.5005584958932591
  0.8894189350953611  0.2237523127996482  0.5001377008475926
  0.2592736178177978  0.6088206126239397  0.4210773925926038
  0.7587502073777740  0.7226445949454610  0.9212092736042395
  0.3889428251205906  0.1081953590955095  0.0000540246094137
  0.2585840183043667  0.6081936983220683  0.0001457840701287
  0.8894828172629833  0.2231893811446415  0.9217178595335206
  0.1558493709621412  0.9134149559748013  0.7104312365567265
  0.9930194790626325  0.9186374710627991  0.2104367022060282
  0.6551738866184149  0.4194904850823568  0.2102830948738369
  0.4923936157262003  0.4118576686901881  0.7104773233944265
  0.0744372444832094  0.9161859862481910  0.4604442294095866
  0.5742864781054871  0.4161292357627622  0.4605053021734916
  0.0738239891009039  0.9155606671316987  0.9603497000945439
  0.5735077995003741  0.4154062684350821  0.9603671760804260
 
  0.00000000E+00  0.00000000E+00  0.00000000E+00
  0.00000000E+00  0.00000000E+00  0.00000000E+00
  0.00000000E+00  0.00000000E+00  0.00000000E+00
  0.00000000E+00  0.00000000E+00  0.00000000E+00
  0.00000000E+00  0.00000000E+00  0.00000000E+00
  0.00000000E+00  0.00000000E+00  0.00000000E+00
  0.00000000E+00  0.00000000E+00  0.00000000E+00
  0.00000000E+00  0.00000000E+00  0.00000000E+00
  0.00000000E+00  0.00000000E+00  0.00000000E+00
  0.00000000E+00  0.00000000E+00  0.00000000E+00
  0.00000000E+00  0.00000000E+00  0.00000000E+00
  0.00000000E+00  0.00000000E+00  0.00000000E+00
  0.00000000E+00  0.00000000E+00  0.00000000E+00
  0.00000000E+00  0.00000000E+00  0.00000000E+00
  0.00000000E+00  0.00000000E+00  0.00000000E+00
  0.00000000E+00  0.00000000E+00  0.00000000E+00
  0.00000000E+00  0.00000000E+00  0.00000000E+00
  0.00000000E+00  0.00000000E+00  0.00000000E+00
  0.00000000E+00  0.00000000E+00  0.00000000E+00
  0.00000000E+00  0.00000000E+00  0.00000000E+00
