Poscar file generated with pyiron       
   1.00000000000000     
     8.4817411246725083   -0.1231372163227202   -0.2566625869594101
     0.1355394478776095    8.9610761046924807    0.2119295982680811
     0.3759779527687183   -0.2974726423028460   12.4744229354288425
   Cs   I    Pb
     4    12     4
Direct
  0.0945639644080430  0.3409435324315607  0.2321210129275089
  0.0448169285473716  0.4964294242055182  0.7317044147842455
  0.5960344687351211  0.9957824080054815  0.7330262996862890
  0.5438846188897033  0.8403813249451877  0.2328856581240834
  0.3801874256206474  0.1135450909507845  0.4422160672214960
  0.7577760424498663  0.7240191182355523  0.5223284133433435
  0.8812516452372493  0.2243349393874521  0.5215747626499329
  0.2577224941965606  0.6129885019616511  0.4421768712103679
  0.7589964704328268  0.7241678872790837  0.9437925121627753
  0.3822716671146463  0.1128324668768717  0.0225638874030789
  0.2586734671136460  0.6127015385262328  0.0212498951931756
  0.8821454684012259  0.2242061883910553  0.9423366879670425
  0.1502663948575778  0.9165835578322334  0.7324658281637370
  0.9893415417666872  0.9210638767484052  0.2325232064105147
  0.6497350122874737  0.4206226244419329  0.2329027268804548
  0.4899118956519128  0.4152901138840303  0.7328845326931018
  0.0694672548202894  0.9185431857931182  0.4825639170267753
  0.5691641675327549  0.4184138753415318  0.4829859169526023
  0.0708006810782462  0.9185546000153824  0.9827389228765534
  0.5709212014445617  0.4183950820544821  0.9829476692981347
 
  0.00000000E+00  0.00000000E+00  0.00000000E+00
  0.00000000E+00  0.00000000E+00  0.00000000E+00
  0.00000000E+00  0.00000000E+00  0.00000000E+00
  0.00000000E+00  0.00000000E+00  0.00000000E+00
  0.00000000E+00  0.00000000E+00  0.00000000E+00
  0.00000000E+00  0.00000000E+00  0.00000000E+00
  0.00000000E+00  0.00000000E+00  0.00000000E+00
  0.00000000E+00  0.00000000E+00  0.00000000E+00
  0.00000000E+00  0.00000000E+00  0.00000000E+00
  0.00000000E+00  0.00000000E+00  0.00000000E+00
  0.00000000E+00  0.00000000E+00  0.00000000E+00
  0.00000000E+00  0.00000000E+00  0.00000000E+00
  0.00000000E+00  0.00000000E+00  0.00000000E+00
  0.00000000E+00  0.00000000E+00  0.00000000E+00
  0.00000000E+00  0.00000000E+00  0.00000000E+00
  0.00000000E+00  0.00000000E+00  0.00000000E+00
  0.00000000E+00  0.00000000E+00  0.00000000E+00
  0.00000000E+00  0.00000000E+00  0.00000000E+00
  0.00000000E+00  0.00000000E+00  0.00000000E+00
  0.00000000E+00  0.00000000E+00  0.00000000E+00
