Poscar file generated with pyiron       
   1.00000000000000     
     8.3844169999999991    0.0691650000000000   -0.2361930000000000
    -0.0644290000000000    8.9989659999999994    0.5052960000000000
     0.3523200000000000   -0.6957770000000000   12.4749529999999993
   Cs   I    Pb
     4    12     4
Direct
  0.1239293088576474  0.3080853092881526  0.2104705284306831
  0.0611536477946473  0.4754316038982438  0.7104689448434627
  0.6237373173955305  0.9745514205427099  0.7097428917996140
  0.5611158979533641  0.8087506882141255  0.2093631623064454
  0.4112910598129389  0.0831574689711729  0.4209302384885163
  0.7775688016782922  0.6999132659969902  0.4991838689430992
  0.9104702353951168  0.1999058467302888  0.4994368187467515
  0.2769012060992679  0.5835095182563137  0.4208856186432044
  0.7734006250214804  0.7007300630100772  0.9210890101893696
  0.4082214969553632  0.0833259611376462  0.9989223539905510
  0.2735658232227891  0.5831652104386720  0.9986253141490593
  0.9081668087359418  0.2007172737008602  0.9216212400456243
  0.1727257106514131  0.8901028592521669  0.7104603937645138
  0.0120828498017929  0.8929244676315093  0.2103791163223363
  0.6735771761414213  0.3937697787767007  0.2097914188003571
  0.5107526053466600  0.3891650262949895  0.7096659585090066
  0.0943130702499317  0.8916633984109552  0.4602659150802566
  0.5941284757711571  0.3918169524970452  0.4597577636911367
  0.0905472504860825  0.8920853530021802  0.9602686484546794
  0.5905632559881724  0.3918227470890514  0.9597023570826337
 
  0.00000000E+00  0.00000000E+00  0.00000000E+00
  0.00000000E+00  0.00000000E+00  0.00000000E+00
  0.00000000E+00  0.00000000E+00  0.00000000E+00
  0.00000000E+00  0.00000000E+00  0.00000000E+00
  0.00000000E+00  0.00000000E+00  0.00000000E+00
  0.00000000E+00  0.00000000E+00  0.00000000E+00
  0.00000000E+00  0.00000000E+00  0.00000000E+00
  0.00000000E+00  0.00000000E+00  0.00000000E+00
  0.00000000E+00  0.00000000E+00  0.00000000E+00
  0.00000000E+00  0.00000000E+00  0.00000000E+00
  0.00000000E+00  0.00000000E+00  0.00000000E+00
  0.00000000E+00  0.00000000E+00  0.00000000E+00
  0.00000000E+00  0.00000000E+00  0.00000000E+00
  0.00000000E+00  0.00000000E+00  0.00000000E+00
  0.00000000E+00  0.00000000E+00  0.00000000E+00
  0.00000000E+00  0.00000000E+00  0.00000000E+00
  0.00000000E+00  0.00000000E+00  0.00000000E+00
  0.00000000E+00  0.00000000E+00  0.00000000E+00
  0.00000000E+00  0.00000000E+00  0.00000000E+00
  0.00000000E+00  0.00000000E+00  0.00000000E+00
