Poscar file generated with pyiron       
   1.00000000000000     
     8.8604409999999998    0.3608550000000000   -0.1394200000000000
    -0.0072360000000000    8.8517309999999991    0.4708020000000000
     0.2440710000000000   -0.7044520000000000   12.2173499999999997
   Cs   I    Pb
     4    12     4
Direct
  0.0974566589232566  0.3732265251280893  0.2002361899408243
  0.0732070522877635  0.3958243623632498  0.6981343903438315
  0.5995907633299851  0.8705961195162430  0.7497869889797002
  0.5752200680362378  0.8968518746137093  0.2475698390411907
  0.3092595851623585  0.1496525567992393  0.4539939427598298
  0.8169181361215578  0.6420906041175911  0.4908868813158733
  0.8068485075849736  0.1231340650835051  0.5416713958540242
  0.3140893129146463  0.6291066443189877  0.4049311186031872
  0.8579747543070440  0.6239811072567392  0.9561618201545485
  0.3617007300561852  0.1202961932173494  0.9932833029717827
  0.3603866241811318  0.6406209253469370  0.0420642503325794
  0.8640298422594128  0.1430597043388531  0.9053316720972333
  0.1707960510325890  0.8299617606894500  0.7193845962551819
  0.0036394786435920  0.9387487108910051  0.2200322883874009
  0.6692349483411348  0.3298280187550944  0.2271889905888429
  0.5020645846412179  0.4374927711901080  0.7277200030440056
  0.0739053790416406  0.8886056712225781  0.4719096625757331
  0.5733505709661273  0.3882600051925778  0.4755154769664642
  0.0995756647098531  0.8799074967252025  0.9717606323304580
  0.5990250966308182  0.3794190306914800  0.9754108367229435
 
  0.00000000E+00  0.00000000E+00  0.00000000E+00
  0.00000000E+00  0.00000000E+00  0.00000000E+00
  0.00000000E+00  0.00000000E+00  0.00000000E+00
  0.00000000E+00  0.00000000E+00  0.00000000E+00
  0.00000000E+00  0.00000000E+00  0.00000000E+00
  0.00000000E+00  0.00000000E+00  0.00000000E+00
  0.00000000E+00  0.00000000E+00  0.00000000E+00
  0.00000000E+00  0.00000000E+00  0.00000000E+00
  0.00000000E+00  0.00000000E+00  0.00000000E+00
  0.00000000E+00  0.00000000E+00  0.00000000E+00
  0.00000000E+00  0.00000000E+00  0.00000000E+00
  0.00000000E+00  0.00000000E+00  0.00000000E+00
  0.00000000E+00  0.00000000E+00  0.00000000E+00
  0.00000000E+00  0.00000000E+00  0.00000000E+00
  0.00000000E+00  0.00000000E+00  0.00000000E+00
  0.00000000E+00  0.00000000E+00  0.00000000E+00
  0.00000000E+00  0.00000000E+00  0.00000000E+00
  0.00000000E+00  0.00000000E+00  0.00000000E+00
  0.00000000E+00  0.00000000E+00  0.00000000E+00
  0.00000000E+00  0.00000000E+00  0.00000000E+00
