Poscar file generated with pyiron       
   1.00000000000000     
     8.4373129999999996   -0.1274010000000000   -0.2071630000000000
     0.1471680000000000    8.9891000000000005    0.2379680000000000
     0.3044760000000000   -0.3312110000000000   12.4762400000000007
   Cs   I    Pb
     4    12     4
Direct
  0.0983588647785680  0.2455532082144103  0.2112940413526943
  0.0399819555368595  0.4062627365795777  0.7112372353160552
  0.5981497280798038  0.9070501845271579  0.7117040032440158
  0.5402128269876982  0.7457550621081310  0.2116286623119308
  0.3831019486998457  0.0194129097307041  0.4227694360014738
  0.7545312945731695  0.6334098140873650  0.5005838245121481
  0.8820322940305445  0.1325272911833650  0.5015102286485629
  0.2539302592893478  0.5188290627599343  0.4213606518543713
  0.7561996325754379  0.6325717338157304  0.9217085299502230
  0.3835518207430937  0.0196650399105209  0.0011006804731295
  0.2560473312398273  0.5195716228405942  0.0013917363571636
  0.8834877320850154  0.1323129709062627  0.9214068740626473
  0.1510875483063288  0.8217776096353404  0.7112378728157722
  0.9871045068211544  0.8300326470360631  0.2112843926898762
  0.6510620249229575  0.3288243477746846  0.2114671489491116
  0.4877905883662166  0.3241313359777536  0.7116012015253688
  0.0689108110448160  0.8264317438229867  0.4612278958842495
  0.5686503616374949  0.3268478619057547  0.4614960602654676
  0.0700012949106963  0.8260035435304474  0.9612903242536746
  0.5699231155107185  0.3262696416080360  0.9614809186235007
 
  0.00000000E+00  0.00000000E+00  0.00000000E+00
  0.00000000E+00  0.00000000E+00  0.00000000E+00
  0.00000000E+00  0.00000000E+00  0.00000000E+00
  0.00000000E+00  0.00000000E+00  0.00000000E+00
  0.00000000E+00  0.00000000E+00  0.00000000E+00
  0.00000000E+00  0.00000000E+00  0.00000000E+00
  0.00000000E+00  0.00000000E+00  0.00000000E+00
  0.00000000E+00  0.00000000E+00  0.00000000E+00
  0.00000000E+00  0.00000000E+00  0.00000000E+00
  0.00000000E+00  0.00000000E+00  0.00000000E+00
  0.00000000E+00  0.00000000E+00  0.00000000E+00
  0.00000000E+00  0.00000000E+00  0.00000000E+00
  0.00000000E+00  0.00000000E+00  0.00000000E+00
  0.00000000E+00  0.00000000E+00  0.00000000E+00
  0.00000000E+00  0.00000000E+00  0.00000000E+00
  0.00000000E+00  0.00000000E+00  0.00000000E+00
  0.00000000E+00  0.00000000E+00  0.00000000E+00
  0.00000000E+00  0.00000000E+00  0.00000000E+00
  0.00000000E+00  0.00000000E+00  0.00000000E+00
  0.00000000E+00  0.00000000E+00  0.00000000E+00
