Poscar file generated with pyiron       
   1.00000000000000     
     8.4365673296344994    0.2269894912781851   -0.4098216834111334
    -0.2207530170462011    8.9729522892538451    0.4162286640686582
     0.6191917294953417   -0.5573005261340017   12.4458153757680616
   Cs   I    Pb
     4    12     4
Direct
  0.1224868477126336  0.4440196920074727  0.2403629222333677
  0.0651502709843234  0.2843754663403339  0.7402451769440437
  0.6219076987308211  0.7838772319193503  0.7396043671448896
  0.5653204294087868  0.9443535942188314  0.2400224893260291
  0.2812043723248177  0.1705734914121341  0.4506989980776701
  0.9073456170875338  0.5582528674668873  0.5303755593180441
  0.7818474091497358  0.0582739172466901  0.5303194146235005
  0.4079922970345120  0.6706372874632363  0.4505620501603815
  0.9067147541284952  0.5580112412593762  0.9500052002904930
  0.2803885611333173  0.1703941048422391  0.0298489861136166
  0.4064196399362711  0.6704667753136581  0.0304012936082923
  0.7800818509096734  0.0580354294570413  0.9494975472552809
  0.1764309199366888  0.8683992752724271  0.7402005615383894
  0.0118991476666249  0.8608787620130626  0.2402004524897293
  0.6759260998637464  0.3604535756471327  0.2401193664304191
  0.5118737634185526  0.3667101950040840  0.7401156027208668
  0.0945675382794096  0.8641428753205183  0.4902467070737656
  0.5944749756489059  0.3640759171038704  0.4902046117468454
  0.0930979026966397  0.8644019221951403  0.9900612351104029
  0.5934181985711786  0.3645083510368841  0.9900902778872417
 
  0.00000000E+00  0.00000000E+00  0.00000000E+00
  0.00000000E+00  0.00000000E+00  0.00000000E+00
  0.00000000E+00  0.00000000E+00  0.00000000E+00
  0.00000000E+00  0.00000000E+00  0.00000000E+00
  0.00000000E+00  0.00000000E+00  0.00000000E+00
  0.00000000E+00  0.00000000E+00  0.00000000E+00
  0.00000000E+00  0.00000000E+00  0.00000000E+00
  0.00000000E+00  0.00000000E+00  0.00000000E+00
  0.00000000E+00  0.00000000E+00  0.00000000E+00
  0.00000000E+00  0.00000000E+00  0.00000000E+00
  0.00000000E+00  0.00000000E+00  0.00000000E+00
  0.00000000E+00  0.00000000E+00  0.00000000E+00
  0.00000000E+00  0.00000000E+00  0.00000000E+00
  0.00000000E+00  0.00000000E+00  0.00000000E+00
  0.00000000E+00  0.00000000E+00  0.00000000E+00
  0.00000000E+00  0.00000000E+00  0.00000000E+00
  0.00000000E+00  0.00000000E+00  0.00000000E+00
  0.00000000E+00  0.00000000E+00  0.00000000E+00
  0.00000000E+00  0.00000000E+00  0.00000000E+00
  0.00000000E+00  0.00000000E+00  0.00000000E+00
