Poscar file generated with pyiron       
   1.00000000000000     
     8.8759077101634389    0.4868505145311545   -0.3124287514656970
    -0.1241751999137874    8.8221536557952280    0.3852850510586495
     0.4136017254386848   -0.4421258360750788   12.2370711369019425
   Cs   I    Pb
     4    12     4
Direct
  0.1166951828027939  0.3579717951124048  0.2085564368368974
  0.0958734170476318  0.3684188605849648  0.7126546901603026
  0.6138929111647371  0.8506696793745203  0.7448677997461917
  0.5947737528879731  0.8794465919345205  0.2492567541338385
  0.3381325216609506  0.1233827543423576  0.4602039057848425
  0.8393020164570977  0.6220933062161539  0.4977343581482540
  0.8369474711716237  0.1067285352655709  0.5457579402548806
  0.3371907213223295  0.6088228924426656  0.4100824361523838
  0.8796970594082164  0.5983943296645502  0.9582145965500568
  0.3627442495790963  0.1154337851815194  0.9949440329044063
  0.3808361536668147  0.6282535828172057  0.0453748381398366
  0.8650358339881786  0.1141944669409902  0.9105113337727654
  0.1870556346511802  0.8094012249334365  0.7256600235754596
  0.0226800264339852  0.9180613299151293  0.2248157377437199
  0.6886603980668476  0.3134386948526076  0.2311755231083049
  0.5228131114996453  0.4170436597864669  0.7302849319197501
  0.0967996293141509  0.8666387392717727  0.4766344976406467
  0.5971566816170060  0.3672273234107507  0.4795774125490633
  0.1134738656710278  0.8620392880138312  0.9765608390541833
  0.6137010117969454  0.3629051235989230  0.9795842304956348
 
  0.00000000E+00  0.00000000E+00  0.00000000E+00
  0.00000000E+00  0.00000000E+00  0.00000000E+00
  0.00000000E+00  0.00000000E+00  0.00000000E+00
  0.00000000E+00  0.00000000E+00  0.00000000E+00
  0.00000000E+00  0.00000000E+00  0.00000000E+00
  0.00000000E+00  0.00000000E+00  0.00000000E+00
  0.00000000E+00  0.00000000E+00  0.00000000E+00
  0.00000000E+00  0.00000000E+00  0.00000000E+00
  0.00000000E+00  0.00000000E+00  0.00000000E+00
  0.00000000E+00  0.00000000E+00  0.00000000E+00
  0.00000000E+00  0.00000000E+00  0.00000000E+00
  0.00000000E+00  0.00000000E+00  0.00000000E+00
  0.00000000E+00  0.00000000E+00  0.00000000E+00
  0.00000000E+00  0.00000000E+00  0.00000000E+00
  0.00000000E+00  0.00000000E+00  0.00000000E+00
  0.00000000E+00  0.00000000E+00  0.00000000E+00
  0.00000000E+00  0.00000000E+00  0.00000000E+00
  0.00000000E+00  0.00000000E+00  0.00000000E+00
  0.00000000E+00  0.00000000E+00  0.00000000E+00
  0.00000000E+00  0.00000000E+00  0.00000000E+00
