Poscar file generated with pyiron       
   1.00000000000000     
     8.4313313333682380    0.0311966727888522   -0.4077897587901373
    -0.0117425755215393    8.9809361532120704    0.4829117843143800
     0.6065326476227816   -0.6528190741565031   12.4467851408562638
   Cs   I    Pb
     4    12     4
Direct
  0.1341456935913212  0.3140668188996529  0.2203520292698029
  0.0768633069343860  0.4748566062481132  0.7206140423782594
  0.6339639854255564  0.9757105126289954  0.7202424521756499
  0.5764508284053353  0.8146691312063176  0.2201489097121958
  0.4194355791017107  0.0886894849789257  0.4302297964540449
  0.7919409950075054  0.7013621187163598  0.5106125323275039
  0.9197894803508317  0.2011624705203171  0.5100795243409251
  0.2919279507916972  0.5882276874508724  0.4303720167323167
  0.7912585438383389  0.7017731288401782  0.9300894202906486
  0.4184009563683060  0.0885732349291955  0.0104710003850156
  0.2911099694432024  0.5880444333528511  0.0101993445967387
  0.9186114899274672  0.2014258980910155  0.9305985336614510
  0.1877804965583156  0.8910730436238615  0.7204997030769795
  0.0234898526541658  0.8976120796987704  0.2205188041575227
  0.6879689147853646  0.3992026851022146  0.2202780489568435
  0.5234936905543905  0.3916835965192461  0.7203378140006400
  0.1059400532259875  0.8946033105880888  0.4705896805497838
  0.6060058438791360  0.3949445436134658  0.4702854661804951
  0.1049818403028087  0.8948378262359710  0.9704856848054445
  0.6050533632141468  0.3950352928952007  0.9703409958316092
 
  0.00000000E+00  0.00000000E+00  0.00000000E+00
  0.00000000E+00  0.00000000E+00  0.00000000E+00
  0.00000000E+00  0.00000000E+00  0.00000000E+00
  0.00000000E+00  0.00000000E+00  0.00000000E+00
  0.00000000E+00  0.00000000E+00  0.00000000E+00
  0.00000000E+00  0.00000000E+00  0.00000000E+00
  0.00000000E+00  0.00000000E+00  0.00000000E+00
  0.00000000E+00  0.00000000E+00  0.00000000E+00
  0.00000000E+00  0.00000000E+00  0.00000000E+00
  0.00000000E+00  0.00000000E+00  0.00000000E+00
  0.00000000E+00  0.00000000E+00  0.00000000E+00
  0.00000000E+00  0.00000000E+00  0.00000000E+00
  0.00000000E+00  0.00000000E+00  0.00000000E+00
  0.00000000E+00  0.00000000E+00  0.00000000E+00
  0.00000000E+00  0.00000000E+00  0.00000000E+00
  0.00000000E+00  0.00000000E+00  0.00000000E+00
  0.00000000E+00  0.00000000E+00  0.00000000E+00
  0.00000000E+00  0.00000000E+00  0.00000000E+00
  0.00000000E+00  0.00000000E+00  0.00000000E+00
  0.00000000E+00  0.00000000E+00  0.00000000E+00
