Poscar file generated with pyiron       
   1.00000000000000     
     8.4051481403692243    0.1653578163713776   -0.3344024388385536
    -0.1571505469916939    8.9848561026992932    0.5224968834949754
     0.5062934937515253   -0.7137844063035291   12.4601435352574761
   Cs   I    Pb
     4    12     4
Direct
  0.1064481783102942  0.4447752305509050  0.2275175476180241
  0.0459094623599756  0.2802878225100366  0.7274380921872234
  0.6061977391226560  0.7801584740884348  0.7255350390449462
  0.5459906526754584  0.9447493665247177  0.2255806239762304
  0.2631572333618313  0.1698166753055578  0.4368113031069854
  0.8939264600594641  0.5548236607763800  0.5164921972682334
  0.7629829932090187  0.0554427201201827  0.5157497282180568
  0.3937949694780812  0.6706147966326836  0.4370809280145401
  0.8893772768864570  0.5552122226754385  0.9366362180611855
  0.2583766487376715  0.1705201976342489  0.0165858223045993
  0.3893152945459213  0.6698652606707965  0.0157733319374337
  0.7582428550556412  0.0544376909262277  0.9370201627963356
  0.1580898520015387  0.8659160723643451  0.7270277853114082
  0.9942138294116689  0.8590102937295363  0.2269909711341128
  0.6579148139641380  0.3602971968398241  0.2260843219019320
  0.4945464779946663  0.3645705635856452  0.7260739471668847
  0.0781770392765709  0.8627736585124776  0.4769223149258092
  0.5782810647399864  0.3627640257717124  0.4761584658598645
  0.0740499270158618  0.8625906218082973  0.9769093539663852
  0.5741231641913255  0.3625449801341978  0.9761747335733119
 
  0.00000000E+00  0.00000000E+00  0.00000000E+00
  0.00000000E+00  0.00000000E+00  0.00000000E+00
  0.00000000E+00  0.00000000E+00  0.00000000E+00
  0.00000000E+00  0.00000000E+00  0.00000000E+00
  0.00000000E+00  0.00000000E+00  0.00000000E+00
  0.00000000E+00  0.00000000E+00  0.00000000E+00
  0.00000000E+00  0.00000000E+00  0.00000000E+00
  0.00000000E+00  0.00000000E+00  0.00000000E+00
  0.00000000E+00  0.00000000E+00  0.00000000E+00
  0.00000000E+00  0.00000000E+00  0.00000000E+00
  0.00000000E+00  0.00000000E+00  0.00000000E+00
  0.00000000E+00  0.00000000E+00  0.00000000E+00
  0.00000000E+00  0.00000000E+00  0.00000000E+00
  0.00000000E+00  0.00000000E+00  0.00000000E+00
  0.00000000E+00  0.00000000E+00  0.00000000E+00
  0.00000000E+00  0.00000000E+00  0.00000000E+00
  0.00000000E+00  0.00000000E+00  0.00000000E+00
  0.00000000E+00  0.00000000E+00  0.00000000E+00
  0.00000000E+00  0.00000000E+00  0.00000000E+00
  0.00000000E+00  0.00000000E+00  0.00000000E+00
