Poscar file generated with pyiron       
   1.00000000000000     
     8.3953380000000006    0.0353270000000000   -0.2608160000000000
    -0.0408530000000000    9.0015459999999994    0.5275980000000000
     0.3892610000000000   -0.7231590000000000   12.4647109999999994
   Cs   I    Pb
     4    12     4
Direct
  0.1302986359344089  0.3109762507158109  0.2164815268437792
  0.0678433331586419  0.4761990739963693  0.7161884982388074
  0.6306350027030092  0.9793224369515130  0.7145642169706434
  0.5667038964259561  0.8136889402258518  0.2144760679610869
  0.4160302478589983  0.0869993095247992  0.4253435402239987
  0.7831264239302271  0.7028914424761723  0.5058219560000694
  0.9165273194131132  0.2024822584500257  0.5036217842184101
  0.2836632123930940  0.5863180736267211  0.4272910419471572
  0.7816484362634810  0.7034678343869203  0.9236881609035379
  0.4128902856026357  0.0889846373647885  0.0056882455288303
  0.2809522102807236  0.5864499915473402  0.0047140272084363
  0.9128995515121829  0.2019385903814381  0.9277353790425380
  0.1808931070629498  0.8926210885066368  0.7154580021475070
  0.0177473593776014  0.8946162415834564  0.2154224814768426
  0.6824570107870969  0.4023964017526680  0.2150458699133253
  0.5175666609905107  0.3914739300893828  0.7150467164608330
  0.0995452682168576  0.8937030550475242  0.4654566968109535
  0.6003431309246423  0.3947254210275730  0.4648062680986200
  0.0979428070811110  0.8947672473206154  0.9652326407267111
  0.5976684297670758  0.3960547132624086  0.9652042520372603
 
  0.00000000E+00  0.00000000E+00  0.00000000E+00
  0.00000000E+00  0.00000000E+00  0.00000000E+00
  0.00000000E+00  0.00000000E+00  0.00000000E+00
  0.00000000E+00  0.00000000E+00  0.00000000E+00
  0.00000000E+00  0.00000000E+00  0.00000000E+00
  0.00000000E+00  0.00000000E+00  0.00000000E+00
  0.00000000E+00  0.00000000E+00  0.00000000E+00
  0.00000000E+00  0.00000000E+00  0.00000000E+00
  0.00000000E+00  0.00000000E+00  0.00000000E+00
  0.00000000E+00  0.00000000E+00  0.00000000E+00
  0.00000000E+00  0.00000000E+00  0.00000000E+00
  0.00000000E+00  0.00000000E+00  0.00000000E+00
  0.00000000E+00  0.00000000E+00  0.00000000E+00
  0.00000000E+00  0.00000000E+00  0.00000000E+00
  0.00000000E+00  0.00000000E+00  0.00000000E+00
  0.00000000E+00  0.00000000E+00  0.00000000E+00
  0.00000000E+00  0.00000000E+00  0.00000000E+00
  0.00000000E+00  0.00000000E+00  0.00000000E+00
  0.00000000E+00  0.00000000E+00  0.00000000E+00
  0.00000000E+00  0.00000000E+00  0.00000000E+00
