Poscar file generated with pyiron       
   1.00000000000000     
     8.3672579999999996    0.0117850000000000   -0.3540760000000000
    -0.0061570000000000    9.0071359999999991    0.4559440000000000
     0.5272760000000000   -0.6233490000000000   12.4750829999999997
   Cs   I    Pb
     4    12     4
Direct
  0.1368590189526273  0.3131809763917417  0.2208430772774861
  0.0731023508836657  0.4827071843720248  0.7206064605352722
  0.6379538517354817  0.9833522863514403  0.7193131244030440
  0.5718315018332163  0.8151464250962377  0.2190290705878084
  0.4238638266457286  0.0900290375880530  0.4298706632538583
  0.7887474673551722  0.7073583292095904  0.5097341687451049
  0.9236319254739627  0.2070930253766647  0.5090029477776170
  0.2886198885330344  0.5899443213809619  0.4312035342344345
  0.7847057926728738  0.7087978210769847  0.9302594396817909
  0.4207679514009115  0.0906171956499122  0.0091919822892166
  0.2844747633591282  0.5888085793542928  0.0088242532158560
  0.9208265107611169  0.2077253171845470  0.9319849587810367
  0.1861298106073690  0.8978332699830815  0.7201980022606520
  0.0239855687580928  0.8986829154788012  0.2201202785585181
  0.6867159584434930  0.4032732355502233  0.2196308198387769
  0.5241777855504282  0.3960161213152631  0.7195425121474770
  0.1060901346672196  0.8982491127581724  0.4701054954125183
  0.6062759370006958  0.3988414784109438  0.4695526559933043
  0.1033242090947439  0.8986724730718834  0.9700560384195285
  0.6031715614297113  0.3993063587130123  0.9697709890059798
 
  0.00000000E+00  0.00000000E+00  0.00000000E+00
  0.00000000E+00  0.00000000E+00  0.00000000E+00
  0.00000000E+00  0.00000000E+00  0.00000000E+00
  0.00000000E+00  0.00000000E+00  0.00000000E+00
  0.00000000E+00  0.00000000E+00  0.00000000E+00
  0.00000000E+00  0.00000000E+00  0.00000000E+00
  0.00000000E+00  0.00000000E+00  0.00000000E+00
  0.00000000E+00  0.00000000E+00  0.00000000E+00
  0.00000000E+00  0.00000000E+00  0.00000000E+00
  0.00000000E+00  0.00000000E+00  0.00000000E+00
  0.00000000E+00  0.00000000E+00  0.00000000E+00
  0.00000000E+00  0.00000000E+00  0.00000000E+00
  0.00000000E+00  0.00000000E+00  0.00000000E+00
  0.00000000E+00  0.00000000E+00  0.00000000E+00
  0.00000000E+00  0.00000000E+00  0.00000000E+00
  0.00000000E+00  0.00000000E+00  0.00000000E+00
  0.00000000E+00  0.00000000E+00  0.00000000E+00
  0.00000000E+00  0.00000000E+00  0.00000000E+00
  0.00000000E+00  0.00000000E+00  0.00000000E+00
  0.00000000E+00  0.00000000E+00  0.00000000E+00
