SYSTEM=ref_RPA_preDIAG #jobname
PREC=Normal
ALGO=Normal
LREAL=.FALSE.
LWAVE=.TRUE.
LORBIT=11
ISMEAR=0
LASPH=.TRUE.
EDIFF=1e-08
ENCUT=400
SIGMA=0.05
LCHARG=.TRUE.
ISPIN=1
IVDW=0
NBANDS=108
NCORE=18
