SYSTEM=ref_M06L_pre #jobname
PREC=Normal
ALGO=Normal
LREAL=.FALSE.
LWAVE=.TRUE.
LORBIT=11
ISMEAR=0
LASPH=.TRUE.
EDIFF=1e-08
ENCUT=600
SIGMA=0.05
LCHARG=.FALSE.
ISPIN=1
IVDW=0
NCORE=9
