SYSTEM=ref_PBESOC_pre #jobname
PREC=Normal
ALGO=Normal
LREAL=.FALSE.
LWAVE=.TRUE.
LORBIT=11
ISMEAR=0
LASPH=.TRUE.
EDIFF=1e-08
ENCUT=600
SIGMA=0.05
LCHARG=.TRUE.
ISPIN=1
IVDW=0
KPAR=1
ISYM=-1
LMAXMIX=4
NBANDS=108
NCORE=18
