Poscar file generated with pyiron       
   1.00000000000000     
     4.7844512924352740    0.0606453324555937    0.0943411462592392
    -0.1419739527374446   10.4788326372562395    0.1243525818382958
    -0.3479047547669389   -0.2160617325435960   17.8078970582443681
   Cs   I    Pb
     4    12     4
Direct
  0.6954615528442455  0.9823801290705765  0.3348193280563008
  0.1982279285368966  0.8195300414173629  0.6780676339172507
  0.6977703318944742  0.4824191301588152  0.1782048570888274
  0.2009514131842585  0.3196438567121719  0.8350022226375107
  0.7031387707260672  0.2398210865295342  0.0050006673828858
  0.2038222985260104  0.5623321093832995  0.0081743012461805
  0.6934647051190692  0.7394396648221988  0.5078600825859851
  0.1932340321852387  0.0617771066097120  0.5049054442546718
  0.2040575989749537  0.9353268088687735  0.8934134506888145
  0.7026797525944350  0.8666487816768298  0.1195289651969456
  0.1940871772059171  0.4351494924707851  0.6195486360494498
  0.6931169952461732  0.3662072933107668  0.3935622927574667
  0.1970634967244577  0.1995150625814984  0.2214005841745786
  0.7000092112712357  0.6023973448994203  0.7916387935827890
  0.1957247131913466  0.6997028436635074  0.2914579235959067
  0.6993307918185960  0.1022399761338923  0.7214474306363272
  0.2029236647388577  0.0607391506505061  0.0676026990246947
  0.7047208651702996  0.7411310797138946  0.9454249413504600
  0.1927137707653177  0.5605974223430701  0.4451750776998805
  0.6935914787566079  0.2407096141966700  0.5677445639501091
 
  0.00000000E+00  0.00000000E+00  0.00000000E+00
  0.00000000E+00  0.00000000E+00  0.00000000E+00
  0.00000000E+00  0.00000000E+00  0.00000000E+00
  0.00000000E+00  0.00000000E+00  0.00000000E+00
  0.00000000E+00  0.00000000E+00  0.00000000E+00
  0.00000000E+00  0.00000000E+00  0.00000000E+00
  0.00000000E+00  0.00000000E+00  0.00000000E+00
  0.00000000E+00  0.00000000E+00  0.00000000E+00
  0.00000000E+00  0.00000000E+00  0.00000000E+00
  0.00000000E+00  0.00000000E+00  0.00000000E+00
  0.00000000E+00  0.00000000E+00  0.00000000E+00
  0.00000000E+00  0.00000000E+00  0.00000000E+00
  0.00000000E+00  0.00000000E+00  0.00000000E+00
  0.00000000E+00  0.00000000E+00  0.00000000E+00
  0.00000000E+00  0.00000000E+00  0.00000000E+00
  0.00000000E+00  0.00000000E+00  0.00000000E+00
  0.00000000E+00  0.00000000E+00  0.00000000E+00
  0.00000000E+00  0.00000000E+00  0.00000000E+00
  0.00000000E+00  0.00000000E+00  0.00000000E+00
  0.00000000E+00  0.00000000E+00  0.00000000E+00
