Poscar file generated with pyiron       
   1.00000000000000     
     4.7856444137707905   -0.0139115973451106    0.1180195117584726
     0.0219911166015641   10.4578970800129945    0.3747780437401696
    -0.4420175337018719   -0.6322309091428563   17.7970557600705455
   Cs   I    Pb
     4    12     4
Direct
  0.6652373931733789  0.0395867473786781  0.3584301758912282
  0.1649593036916798  0.8755903414476967  0.7019313379671241
  0.6636103372398189  0.5393621460526496  0.2020134581755404
  0.1633463271976894  0.3752723440970911  0.8583649379759866
  0.6606898536756575  0.2959611403896769  0.0286649881693223
  0.1606227380363454  0.6177264369389999  0.0316425874817596
  0.6681704018455240  0.7966994901513199  0.5317619668097275
  0.1683369642397665  0.1186578599538504  0.5286896306171825
  0.1601774981257678  0.9914269512281629  0.9172200533497166
  0.6607375527647034  0.9225050489717999  0.1432838239587431
  0.1684002530086998  0.4920166543148877  0.6432906522912598
  0.6684954257450528  0.4232159672755699  0.4171212652604937
  0.1640791977159491  0.2563556965058897  0.2448487383699925
  0.6636424706323751  0.6583425409367478  0.8153784844464651
  0.1650019582725354  0.7567292876278853  0.3154449922678074
  0.6644854823979671  0.1583959950034336  0.7449482186436716
  0.1605995473270450  0.1170028992792033  0.0912537132903116
  0.6598968336189435  0.7968944216813250  0.9691722756056917
  0.1688120532968105  0.6177142005377494  0.4691207796898896
  0.6684890328299340  0.2976080195145255  0.5912776089687035
 
  0.00000000E+00  0.00000000E+00  0.00000000E+00
  0.00000000E+00  0.00000000E+00  0.00000000E+00
  0.00000000E+00  0.00000000E+00  0.00000000E+00
  0.00000000E+00  0.00000000E+00  0.00000000E+00
  0.00000000E+00  0.00000000E+00  0.00000000E+00
  0.00000000E+00  0.00000000E+00  0.00000000E+00
  0.00000000E+00  0.00000000E+00  0.00000000E+00
  0.00000000E+00  0.00000000E+00  0.00000000E+00
  0.00000000E+00  0.00000000E+00  0.00000000E+00
  0.00000000E+00  0.00000000E+00  0.00000000E+00
  0.00000000E+00  0.00000000E+00  0.00000000E+00
  0.00000000E+00  0.00000000E+00  0.00000000E+00
  0.00000000E+00  0.00000000E+00  0.00000000E+00
  0.00000000E+00  0.00000000E+00  0.00000000E+00
  0.00000000E+00  0.00000000E+00  0.00000000E+00
  0.00000000E+00  0.00000000E+00  0.00000000E+00
  0.00000000E+00  0.00000000E+00  0.00000000E+00
  0.00000000E+00  0.00000000E+00  0.00000000E+00
  0.00000000E+00  0.00000000E+00  0.00000000E+00
  0.00000000E+00  0.00000000E+00  0.00000000E+00
