Poscar file generated with pyiron       
   1.00000000000000     
     4.7805717585126697    0.0689107192056642    0.2343988248438764
    -0.1607757082646480   10.4687096349182323    0.1583544250093332
    -0.8623706288898427   -0.2888442508495311   17.7843266384718568
   Cs   I    Pb
     4    12     4
Direct
  0.6157739313970377  0.0166983506262424  0.3453888159741839
  0.1143773915110027  0.8541841910105092  0.6887471050826756
  0.6168296682463191  0.5171540849972152  0.1886311411964147
  0.1165911508655752  0.3545321577743405  0.8452515591884487
  0.6192484223978169  0.2751276606364662  0.0153649083068352
  0.1188349474028425  0.5973403101564512  0.0186002151347561
  0.6127451588588623  0.7738395519512757  0.5186610402396976
  0.1130100622740490  0.0961310183272134  0.5153615879700456
  0.1188704322434289  0.9706244824039560  0.9038267744294617
  0.6193381796687649  0.9016591148742591  0.1300307844233397
  0.1126468755210825  0.4697143727846764  0.6299369978165281
  0.6131040044698106  0.4006944157601383  0.4036933204751249
  0.1166090454685480  0.2342889607445534  0.2319721351488939
  0.6159678279693429  0.6373630133521895  0.8020669609686149
  0.1157522650591936  0.7342095956111694  0.3020197644808429
  0.6151279079920223  0.1371895958117416  0.7318822267422207
  0.1195787691851105  0.0961227318290381  0.0780740830627804
  0.6191306982127617  0.7762660660401708  0.9558619801598610
  0.1127414372048933  0.5950159662658063  0.4557697728559039
  0.6125928203112254  0.2753115165782763  0.5778849227710301
 
  0.00000000E+00  0.00000000E+00  0.00000000E+00
  0.00000000E+00  0.00000000E+00  0.00000000E+00
  0.00000000E+00  0.00000000E+00  0.00000000E+00
  0.00000000E+00  0.00000000E+00  0.00000000E+00
  0.00000000E+00  0.00000000E+00  0.00000000E+00
  0.00000000E+00  0.00000000E+00  0.00000000E+00
  0.00000000E+00  0.00000000E+00  0.00000000E+00
  0.00000000E+00  0.00000000E+00  0.00000000E+00
  0.00000000E+00  0.00000000E+00  0.00000000E+00
  0.00000000E+00  0.00000000E+00  0.00000000E+00
  0.00000000E+00  0.00000000E+00  0.00000000E+00
  0.00000000E+00  0.00000000E+00  0.00000000E+00
  0.00000000E+00  0.00000000E+00  0.00000000E+00
  0.00000000E+00  0.00000000E+00  0.00000000E+00
  0.00000000E+00  0.00000000E+00  0.00000000E+00
  0.00000000E+00  0.00000000E+00  0.00000000E+00
  0.00000000E+00  0.00000000E+00  0.00000000E+00
  0.00000000E+00  0.00000000E+00  0.00000000E+00
  0.00000000E+00  0.00000000E+00  0.00000000E+00
  0.00000000E+00  0.00000000E+00  0.00000000E+00
