Poscar file generated with pyiron       
   1.00000000000000     
     4.7844892340358136   -0.0076797095299985    0.1272418047195571
     0.0096168035750196   10.4681031658874186    0.2903695728773479
    -0.4809182629223495   -0.5075678106078163   17.7947758362275934
   Cs   I    Pb
     4    12     4
Direct
  0.6349788433163213  0.0476383090384228  0.3651440857180688
  0.1345617496422545  0.8850266459210526  0.7084566735956651
  0.6338871983056453  0.5464299286010250  0.2084559718521955
  0.1340113855555298  0.3840722210576728  0.8650917501512673
  0.6331438378008489  0.3031092183240373  0.0349799654490784
  0.1332985714861573  0.6255087819671429  0.0385193080804170
  0.6348803238202411  0.8062824620606258  0.5383044917160321
  0.1349241704424381  0.1283679108765785  0.5351288896847961
  0.1335068502293649  0.9988654567299263  0.9235724401707978
  0.6331912157925385  0.9301118561464886  0.1500447389434576
  0.1351042229341825  0.5015499315620001  0.6499318541169123
  0.6347641788775101  0.4326649754776998  0.4237277995888763
  0.1345706932512067  0.2638402780440227  0.2516554537160840
  0.6342148241126799  0.6668077974410009  0.8215720477373918
  0.1340871257107051  0.7647791905749997  0.3217179218379032
  0.6344074641740451  0.1677737983587620  0.7514721876839296
  0.1333482035901903  0.1243907356468205  0.0978618808017114
  0.6331681072411101  0.8045187885360457  0.9757510627260412
  0.1346107619638771  0.6269421134156982  0.4756277241735850
  0.6352362809838754  0.3072066840915580  0.5979271308080988
 
  0.00000000E+00  0.00000000E+00  0.00000000E+00
  0.00000000E+00  0.00000000E+00  0.00000000E+00
  0.00000000E+00  0.00000000E+00  0.00000000E+00
  0.00000000E+00  0.00000000E+00  0.00000000E+00
  0.00000000E+00  0.00000000E+00  0.00000000E+00
  0.00000000E+00  0.00000000E+00  0.00000000E+00
  0.00000000E+00  0.00000000E+00  0.00000000E+00
  0.00000000E+00  0.00000000E+00  0.00000000E+00
  0.00000000E+00  0.00000000E+00  0.00000000E+00
  0.00000000E+00  0.00000000E+00  0.00000000E+00
  0.00000000E+00  0.00000000E+00  0.00000000E+00
  0.00000000E+00  0.00000000E+00  0.00000000E+00
  0.00000000E+00  0.00000000E+00  0.00000000E+00
  0.00000000E+00  0.00000000E+00  0.00000000E+00
  0.00000000E+00  0.00000000E+00  0.00000000E+00
  0.00000000E+00  0.00000000E+00  0.00000000E+00
  0.00000000E+00  0.00000000E+00  0.00000000E+00
  0.00000000E+00  0.00000000E+00  0.00000000E+00
  0.00000000E+00  0.00000000E+00  0.00000000E+00
  0.00000000E+00  0.00000000E+00  0.00000000E+00
