Poscar file generated with pyiron       
   1.00000000000000     
     4.7789495561876070    0.0836924941116509    0.2395527973896883
    -0.1919239530479843   10.4713037714179098    0.2874465374773452
    -0.8842739945363409   -0.5018567675326246   17.7790199584054527
   Cs   I    Pb
     4    12     4
Direct
  0.6769838130950721  0.9877299128387192  0.3422757890110075
  0.1716039503292715  0.8252527862869905  0.6857695387274961
  0.6797871992200779  0.4883778646946881  0.1858096142542390
  0.1743934133620677  0.3258188844972970  0.8422970040610515
  0.6794879927647229  0.2459730891636622  0.0124088414353910
  0.1797199325624370  0.5682025420614142  0.0156383360388703
  0.6711580323894064  0.7447778857028952  0.5157120512132185
  0.1714180082796712  0.0671030755780290  0.5124083617338456
  0.1790155816362325  0.9414708855774224  0.9009757737991608
  0.6803659754169068  0.8726055878569458  0.1270702664636141
  0.1707733573750992  0.4403751344467216  0.6270980765052350
  0.6717783925585611  0.3716632056055246  0.4009447705859602
  0.1790268463365768  0.2054530334613102  0.2289507364676032
  0.6735657899446073  0.6084380628283264  0.7991165377160377
  0.1780320406850456  0.7050161421609225  0.2992469034535812
  0.6725633246380247  0.1079276960817246  0.7290895589602916
  0.1802653615560428  0.0670810540885681  0.0751385215209638
  0.6794492126273851  0.7471595722818871  0.9529269373886132
  0.1713312927710939  0.5659317100159572  0.4529731165120945
  0.6707690268556364  0.2460079387844052  0.5751389795840020
 
  0.00000000E+00  0.00000000E+00  0.00000000E+00
  0.00000000E+00  0.00000000E+00  0.00000000E+00
  0.00000000E+00  0.00000000E+00  0.00000000E+00
  0.00000000E+00  0.00000000E+00  0.00000000E+00
  0.00000000E+00  0.00000000E+00  0.00000000E+00
  0.00000000E+00  0.00000000E+00  0.00000000E+00
  0.00000000E+00  0.00000000E+00  0.00000000E+00
  0.00000000E+00  0.00000000E+00  0.00000000E+00
  0.00000000E+00  0.00000000E+00  0.00000000E+00
  0.00000000E+00  0.00000000E+00  0.00000000E+00
  0.00000000E+00  0.00000000E+00  0.00000000E+00
  0.00000000E+00  0.00000000E+00  0.00000000E+00
  0.00000000E+00  0.00000000E+00  0.00000000E+00
  0.00000000E+00  0.00000000E+00  0.00000000E+00
  0.00000000E+00  0.00000000E+00  0.00000000E+00
  0.00000000E+00  0.00000000E+00  0.00000000E+00
  0.00000000E+00  0.00000000E+00  0.00000000E+00
  0.00000000E+00  0.00000000E+00  0.00000000E+00
  0.00000000E+00  0.00000000E+00  0.00000000E+00
  0.00000000E+00  0.00000000E+00  0.00000000E+00
