Poscar file generated with pyiron       
   1.00000000000000     
     4.7806065789956884    0.0269550092311343    0.2296728509559010
    -0.0708543335423307   10.4678422568630936    0.2380119090962386
    -0.8508439366743099   -0.4086861547211808   17.7867852762544665
   Cs   I    Pb
     4    12     4
Direct
  0.6702531394728951  0.0666138019774019  0.3588587178519245
  0.1708534234485848  0.9035119707883694  0.7023430553267144
  0.6714045321417894  0.5686069390462215  0.2023789538904219
  0.1715030078579743  0.4054703566881185  0.8590490823744354
  0.6726463400470942  0.3276782043756935  0.0293273145019715
  0.1724257209500506  0.6499897847846269  0.0325193364133987
  0.6699427843765225  0.8224479442788698  0.5323345624155931
  0.1700901875961497  0.1446064596876679  0.5291811395755249
  0.1725180236895452  0.0229162380085131  0.9176780981395968
  0.6727368807184778  0.9539785627438160  0.1438592827878182
  0.1699744483443059  0.5183918308821648  0.6437844028240871
  0.6699037116665187  0.4492493987111907  0.4175754891954794
  0.1712300166145965  0.2856900690041471  0.2460334422925546
  0.6713949823925547  0.6882178909211030  0.8162760251041570
  0.1707528288883561  0.7839022636811935  0.3162027010461608
  0.6711343623988640  0.1864272457981817  0.7459240502730000
  0.1727622351767642  0.1485072951962109  0.0919254582709654
  0.6726488080919680  0.8286320839163860  0.9697022442186300
  0.1698203510883957  0.6434987898925008  0.4695949604073574
  0.6699788843089143  0.3237973864264809  0.5919019369962536
 
  0.00000000E+00  0.00000000E+00  0.00000000E+00
  0.00000000E+00  0.00000000E+00  0.00000000E+00
  0.00000000E+00  0.00000000E+00  0.00000000E+00
  0.00000000E+00  0.00000000E+00  0.00000000E+00
  0.00000000E+00  0.00000000E+00  0.00000000E+00
  0.00000000E+00  0.00000000E+00  0.00000000E+00
  0.00000000E+00  0.00000000E+00  0.00000000E+00
  0.00000000E+00  0.00000000E+00  0.00000000E+00
  0.00000000E+00  0.00000000E+00  0.00000000E+00
  0.00000000E+00  0.00000000E+00  0.00000000E+00
  0.00000000E+00  0.00000000E+00  0.00000000E+00
  0.00000000E+00  0.00000000E+00  0.00000000E+00
  0.00000000E+00  0.00000000E+00  0.00000000E+00
  0.00000000E+00  0.00000000E+00  0.00000000E+00
  0.00000000E+00  0.00000000E+00  0.00000000E+00
  0.00000000E+00  0.00000000E+00  0.00000000E+00
  0.00000000E+00  0.00000000E+00  0.00000000E+00
  0.00000000E+00  0.00000000E+00  0.00000000E+00
  0.00000000E+00  0.00000000E+00  0.00000000E+00
  0.00000000E+00  0.00000000E+00  0.00000000E+00
