Poscar file generated with pyiron       
   1.00000000000000     
     4.7826175252355192    0.0603590049270733    0.2141572227894887
    -0.1284785853847042   10.4628578819348466    0.1640929740665958
    -0.7890665070594500   -0.2905206262726110   17.7934461198195955
   Cs   I    Pb
     4    12     4
Direct
  0.6210998422661879  0.0147311030188984  0.3448238826197448
  0.1201473103463359  0.8507879002675874  0.6884159783617528
  0.6239094275084571  0.5152485075204385  0.1882592135993117
  0.1234888390886049  0.3510413146468616  0.8448319985204967
  0.6276247772213766  0.2721695604014793  0.0149584913596930
  0.1277298431254998  0.5939645710082772  0.0180485547700643
  0.6168591349691999  0.7712540669566661  0.5184977573105808
  0.1169635434631072  0.0931797893072213  0.5149021270992444
  0.1277812150406187  0.9675624322033450  0.9034540887992922
  0.6282720622445735  0.8984976105439888  0.1296399942201451
  0.1162372043001877  0.4666373682700625  0.6297682481289633
  0.6172595233035486  0.3979974986941743  0.4034665155164613
  0.1233320662363101  0.2322245776453087  0.2313386960627040
  0.6226631318505732  0.6338250021207794  0.8017032655576567
  0.1215392461865460  0.7319596264378675  0.3020620526620773
  0.6209244874828366  0.1335503748124854  0.7314742523476156
  0.1286448545243244  0.0930328141671651  0.0776672530343092
  0.6286877359916558  0.7731155765881066  0.9553799301892142
  0.1167028503562265  0.5924743918040547  0.4556817675628190
  0.6161509297423216  0.2721751671492195  0.5776377641490237
 
  0.00000000E+00  0.00000000E+00  0.00000000E+00
  0.00000000E+00  0.00000000E+00  0.00000000E+00
  0.00000000E+00  0.00000000E+00  0.00000000E+00
  0.00000000E+00  0.00000000E+00  0.00000000E+00
  0.00000000E+00  0.00000000E+00  0.00000000E+00
  0.00000000E+00  0.00000000E+00  0.00000000E+00
  0.00000000E+00  0.00000000E+00  0.00000000E+00
  0.00000000E+00  0.00000000E+00  0.00000000E+00
  0.00000000E+00  0.00000000E+00  0.00000000E+00
  0.00000000E+00  0.00000000E+00  0.00000000E+00
  0.00000000E+00  0.00000000E+00  0.00000000E+00
  0.00000000E+00  0.00000000E+00  0.00000000E+00
  0.00000000E+00  0.00000000E+00  0.00000000E+00
  0.00000000E+00  0.00000000E+00  0.00000000E+00
  0.00000000E+00  0.00000000E+00  0.00000000E+00
  0.00000000E+00  0.00000000E+00  0.00000000E+00
  0.00000000E+00  0.00000000E+00  0.00000000E+00
  0.00000000E+00  0.00000000E+00  0.00000000E+00
  0.00000000E+00  0.00000000E+00  0.00000000E+00
  0.00000000E+00  0.00000000E+00  0.00000000E+00
