Poscar file generated with pyiron       
   1.00000000000000     
     4.7827502229051406    0.0451017002043605    0.1704969954321078
    -0.1086233470725895   10.4719639916969829    0.2006215112683180
    -0.6281346417856569   -0.3467266940354169   17.7953486353403854
   Cs   I    Pb
     4    12     4
Direct
  0.6109730199601243  0.0012806229742488  0.3502265459310711
  0.1112185295617781  0.8384432011764336  0.6937470664757074
  0.6122706931815749  0.5018911554547553  0.1937150242683945
  0.1127098330526282  0.3386788484772968  0.8503565334424192
  0.6149780951743364  0.2596629962783698  0.0205618984060879
  0.1148178687139168  0.5821707261853903  0.0236050483082851
  0.6092082258989691  0.7581654533270396  0.5236829654089508
  0.1092399011853623  0.0804112199770179  0.5204335172612871
  0.1150239996183260  0.9552312721686120  0.9088056272973067
  0.6148190851996550  0.8862577807643356  0.1350585008184108
  0.1095485434255432  0.4538419333524452  0.6350364429107936
  0.6089957435025253  0.3852352797428203  0.4089247239340649
  0.1120422063197408  0.2188603782906575  0.2369457718744407
  0.6121964620908448  0.6215703581548532  0.8071867739390048
  0.1113526859489192  0.7186234698833202  0.3072348423218754
  0.6114245403344684  0.1214478507494392  0.7369808495944269
  0.1152823390231292  0.0805378881086251  0.0831482556197189
  0.6153335575053738  0.7610245136209983  0.9608350454101900
  0.1088040660955166  0.5793715991797995  0.4609817885465554
  0.6093509642308091  0.2594380482735326  0.5830083277782317
 
  0.00000000E+00  0.00000000E+00  0.00000000E+00
  0.00000000E+00  0.00000000E+00  0.00000000E+00
  0.00000000E+00  0.00000000E+00  0.00000000E+00
  0.00000000E+00  0.00000000E+00  0.00000000E+00
  0.00000000E+00  0.00000000E+00  0.00000000E+00
  0.00000000E+00  0.00000000E+00  0.00000000E+00
  0.00000000E+00  0.00000000E+00  0.00000000E+00
  0.00000000E+00  0.00000000E+00  0.00000000E+00
  0.00000000E+00  0.00000000E+00  0.00000000E+00
  0.00000000E+00  0.00000000E+00  0.00000000E+00
  0.00000000E+00  0.00000000E+00  0.00000000E+00
  0.00000000E+00  0.00000000E+00  0.00000000E+00
  0.00000000E+00  0.00000000E+00  0.00000000E+00
  0.00000000E+00  0.00000000E+00  0.00000000E+00
  0.00000000E+00  0.00000000E+00  0.00000000E+00
  0.00000000E+00  0.00000000E+00  0.00000000E+00
  0.00000000E+00  0.00000000E+00  0.00000000E+00
  0.00000000E+00  0.00000000E+00  0.00000000E+00
  0.00000000E+00  0.00000000E+00  0.00000000E+00
  0.00000000E+00  0.00000000E+00  0.00000000E+00
