Poscar file generated with pyiron       
   1.00000000000000     
     4.7791562356674913    0.0504767118884192    0.2512020864386970
    -0.1192990848525209   10.4687746844498122    0.1908291624298890
    -0.9300545189012321   -0.3227108166781621   17.7927896383916071
   Cs   I    Pb
     4    12     4
Direct
  0.6168998594963885  0.0057402124564294  0.3438181989885983
  0.1164459123483376  0.8427772154431575  0.6870204485402135
  0.6191989267461281  0.5054717079404821  0.1870040470814177
  0.1178961028293489  0.3430745129896595  0.8436419486505438
  0.6207226597714017  0.2628882430274849  0.0134122894795576
  0.1212572979471541  0.5851377523548659  0.0168561980675251
  0.6124016567320493  0.7623171688436957  0.5168610461424561
  0.1120912413913556  0.0845901883995140  0.5142842628580075
  0.1211137548689329  0.9587321526871820  0.9021285379562723
  0.6209609568802242  0.8897003707000306  0.1285441008595382
  0.1117614375374701  0.4585592705563444  0.6285275440788521
  0.6122456320407207  0.3886753785725330  0.4023095852735490
  0.1184939250083426  0.2226826182723761  0.2299384228838008
  0.6179618391183188  0.6259892943337221  0.8005114406135242
  0.1172524726435077  0.7225741857973382  0.3005397060588854
  0.6166420605573024  0.1255848246223014  0.7305595771625115
  0.1210063258318570  0.0840177367284482  0.0762442686346258
  0.6216904799153249  0.7643893047137318  0.9543160509378602
  0.1118327162954415  0.5833384612273530  0.4541706031755409
  0.6112922448386905  0.2639833957161792  0.5767331453897293
 
  0.00000000E+00  0.00000000E+00  0.00000000E+00
  0.00000000E+00  0.00000000E+00  0.00000000E+00
  0.00000000E+00  0.00000000E+00  0.00000000E+00
  0.00000000E+00  0.00000000E+00  0.00000000E+00
  0.00000000E+00  0.00000000E+00  0.00000000E+00
  0.00000000E+00  0.00000000E+00  0.00000000E+00
  0.00000000E+00  0.00000000E+00  0.00000000E+00
  0.00000000E+00  0.00000000E+00  0.00000000E+00
  0.00000000E+00  0.00000000E+00  0.00000000E+00
  0.00000000E+00  0.00000000E+00  0.00000000E+00
  0.00000000E+00  0.00000000E+00  0.00000000E+00
  0.00000000E+00  0.00000000E+00  0.00000000E+00
  0.00000000E+00  0.00000000E+00  0.00000000E+00
  0.00000000E+00  0.00000000E+00  0.00000000E+00
  0.00000000E+00  0.00000000E+00  0.00000000E+00
  0.00000000E+00  0.00000000E+00  0.00000000E+00
  0.00000000E+00  0.00000000E+00  0.00000000E+00
  0.00000000E+00  0.00000000E+00  0.00000000E+00
  0.00000000E+00  0.00000000E+00  0.00000000E+00
  0.00000000E+00  0.00000000E+00  0.00000000E+00
