Poscar file generated with pyiron       
   1.00000000000000     
     4.7849640000000004    0.0582500000000000    0.0322920000000000
    -0.1323470000000000   10.4740500000000001    0.0365980000000000
    -0.1206220000000000   -0.0663960000000000   17.8110989999999987
   Cs   I    Pb
     4    12     4
Direct
  0.7317146266021268  0.1130618749498780  0.3429526848163036
  0.2367899993136433  0.9509498961196670  0.6861037878960161
  0.7290517289047642  0.6122751176393706  0.1862610226973302
  0.2345636171170469  0.4501088333038368  0.8428662000002447
  0.7303271655343906  0.3694544237897972  0.0128067690321103
  0.2299922193480342  0.6916652085043964  0.0162744854231676
  0.7356127650464757  0.8712313455446647  0.5160291957752889
  0.2354912908203062  0.1937242855897168  0.5130330169428419
  0.2308719640757886  0.0649705323565613  0.9014767493951652
  0.7293839220372931  0.9964974584921222  0.1277516532871701
  0.2359010149285865  0.5670549618869174  0.6276307974980853
  0.7351585609129501  0.4975700992646992  0.4015723552274864
  0.2299141798744628  0.3295114610730323  0.2293374240170252
  0.7351940160845132  0.7330603899144990  0.7994769886932218
  0.2307034246723632  0.8302131203188807  0.2995072014999351
  0.7359452313099268  0.2334870306870229  0.7295149611992997
  0.2296395559590891  0.1907583929841437  0.0755528577219806
  0.7304243501932035  0.8710639678360792  0.9535221249496928
  0.2352430740257248  0.6922651311777344  0.4532277546968118
  0.7360102918337716  0.3727015199606285  0.5757748780228340
 
  0.00000000E+00  0.00000000E+00  0.00000000E+00
  0.00000000E+00  0.00000000E+00  0.00000000E+00
  0.00000000E+00  0.00000000E+00  0.00000000E+00
  0.00000000E+00  0.00000000E+00  0.00000000E+00
  0.00000000E+00  0.00000000E+00  0.00000000E+00
  0.00000000E+00  0.00000000E+00  0.00000000E+00
  0.00000000E+00  0.00000000E+00  0.00000000E+00
  0.00000000E+00  0.00000000E+00  0.00000000E+00
  0.00000000E+00  0.00000000E+00  0.00000000E+00
  0.00000000E+00  0.00000000E+00  0.00000000E+00
  0.00000000E+00  0.00000000E+00  0.00000000E+00
  0.00000000E+00  0.00000000E+00  0.00000000E+00
  0.00000000E+00  0.00000000E+00  0.00000000E+00
  0.00000000E+00  0.00000000E+00  0.00000000E+00
  0.00000000E+00  0.00000000E+00  0.00000000E+00
  0.00000000E+00  0.00000000E+00  0.00000000E+00
  0.00000000E+00  0.00000000E+00  0.00000000E+00
  0.00000000E+00  0.00000000E+00  0.00000000E+00
  0.00000000E+00  0.00000000E+00  0.00000000E+00
  0.00000000E+00  0.00000000E+00  0.00000000E+00
