Poscar file generated with pyiron       
   1.00000000000000     
     4.7798098083923355    0.0515535356352586    0.2189005451925097
    -0.1278607403352008   10.4698697978675330    0.2729435073012816
    -0.8075695685083578   -0.4734783530029821   17.7942517204103829
   Cs   I    Pb
     4    12     4
Direct
  0.6582943861581636  0.9987542485882763  0.3466783346784760
  0.1578553562341260  0.8368434992705972  0.6901384641329152
  0.6597899532165009  0.4989637868241635  0.1899029041367682
  0.1597851383787963  0.3365129118899664  0.8466571668781688
  0.6623578661772521  0.2561507736073014  0.0168163659553759
  0.1617047852263157  0.5786087363461143  0.0196412961617972
  0.6550179697867232  0.7565565591903400  0.5202302900631393
  0.1552911092829668  0.0790590444058461  0.5170005433492368
  0.1618783554186742  0.9523352508461468  0.9052489449908309
  0.6622979988683104  0.8826178027543207  0.1314108744761479
  0.1554185312999668  0.4525044043772471  0.6317163692075125
  0.6545975564260732  0.3831194435426601  0.4054581021241390
  0.1593663018939429  0.2160282333653016  0.2332534508402136
  0.6591750606571418  0.6194339939620830  0.8032817550986847
  0.1583971809814036  0.7157305488125708  0.3036593395916670
  0.6584451432352891  0.1195462060580324  0.7334590079400728
  0.1626240105754561  0.0772060522138417  0.0795549663137330
  0.6618805591261054  0.7577940222404004  0.9570600995452953
  0.1544074073687384  0.5775217471888817  0.4575656332955828
  0.6551818600548657  0.2581025253251680  0.5796693495316253
 
  0.00000000E+00  0.00000000E+00  0.00000000E+00
  0.00000000E+00  0.00000000E+00  0.00000000E+00
  0.00000000E+00  0.00000000E+00  0.00000000E+00
  0.00000000E+00  0.00000000E+00  0.00000000E+00
  0.00000000E+00  0.00000000E+00  0.00000000E+00
  0.00000000E+00  0.00000000E+00  0.00000000E+00
  0.00000000E+00  0.00000000E+00  0.00000000E+00
  0.00000000E+00  0.00000000E+00  0.00000000E+00
  0.00000000E+00  0.00000000E+00  0.00000000E+00
  0.00000000E+00  0.00000000E+00  0.00000000E+00
  0.00000000E+00  0.00000000E+00  0.00000000E+00
  0.00000000E+00  0.00000000E+00  0.00000000E+00
  0.00000000E+00  0.00000000E+00  0.00000000E+00
  0.00000000E+00  0.00000000E+00  0.00000000E+00
  0.00000000E+00  0.00000000E+00  0.00000000E+00
  0.00000000E+00  0.00000000E+00  0.00000000E+00
  0.00000000E+00  0.00000000E+00  0.00000000E+00
  0.00000000E+00  0.00000000E+00  0.00000000E+00
  0.00000000E+00  0.00000000E+00  0.00000000E+00
  0.00000000E+00  0.00000000E+00  0.00000000E+00
