Poscar file generated with pyiron       
   1.00000000000000     
     4.7845594308486730    0.0399119777584829    0.1049433226631101
    -0.0945212994403112   10.4681551511297926    0.0857332036812465
    -0.3955913139699743   -0.1477020159320933   17.8023560817094584
   Cs   I    Pb
     4    12     4
Direct
  0.7392305576774699  0.1106919842958761  0.3379144499368319
  0.2396249394962816  0.9464950247118626  0.6815001424824214
  0.7344907859655194  0.6107324939164983  0.1815952452194328
  0.2387369063498732  0.4462032111955146  0.8381436829934406
  0.7352070794802761  0.3676647462498657  0.0081721995862379
  0.2349173521418659  0.6897157960388295  0.0114247238246849
  0.7426300711744922  0.8679185409599668  0.5114321026748455
  0.2443514873456321  0.1898889101419232  0.5079581782420266
  0.2352512768499998  0.0628383906495446  0.8965305937801515
  0.7352079459300994  0.9941118353945748  0.1225876935418794
  0.2453882602728416  0.5630644155959666  0.6227901059842782
  0.7422201349282005  0.4945455595256447  0.3967085260516420
  0.2361458919306740  0.3275409733867992  0.2244407869999702
  0.7392509532874227  0.7289064229432868  0.7948940936654338
  0.2378645139045771  0.8279761511500927  0.2949699038322476
  0.7403851796896614  0.2295678610525290  0.7244754666447382
  0.2351372620718863  0.1885673618071879  0.0707271126197867
  0.7350579012343791  0.8683527167994974  0.9484831477588515
  0.2425526103947068  0.6889211596846339  0.4487451388325664
  0.7458309069958632  0.3686282778806423  0.5707994730312390
 
  0.00000000E+00  0.00000000E+00  0.00000000E+00
  0.00000000E+00  0.00000000E+00  0.00000000E+00
  0.00000000E+00  0.00000000E+00  0.00000000E+00
  0.00000000E+00  0.00000000E+00  0.00000000E+00
  0.00000000E+00  0.00000000E+00  0.00000000E+00
  0.00000000E+00  0.00000000E+00  0.00000000E+00
  0.00000000E+00  0.00000000E+00  0.00000000E+00
  0.00000000E+00  0.00000000E+00  0.00000000E+00
  0.00000000E+00  0.00000000E+00  0.00000000E+00
  0.00000000E+00  0.00000000E+00  0.00000000E+00
  0.00000000E+00  0.00000000E+00  0.00000000E+00
  0.00000000E+00  0.00000000E+00  0.00000000E+00
  0.00000000E+00  0.00000000E+00  0.00000000E+00
  0.00000000E+00  0.00000000E+00  0.00000000E+00
  0.00000000E+00  0.00000000E+00  0.00000000E+00
  0.00000000E+00  0.00000000E+00  0.00000000E+00
  0.00000000E+00  0.00000000E+00  0.00000000E+00
  0.00000000E+00  0.00000000E+00  0.00000000E+00
  0.00000000E+00  0.00000000E+00  0.00000000E+00
  0.00000000E+00  0.00000000E+00  0.00000000E+00
