Poscar file generated with pyiron       
   1.00000000000000     
     4.7872590860030604    0.0480155643776225    0.1100701814063533
    -0.1122242246174012   10.4709882118252491    0.2680414140434344
    -0.4130131631209126   -0.4538944009288743   17.7965892204785767
   Cs   I    Pb
     4    12     4
Direct
  0.7100927591094728  0.9875212015577691  0.3331683757222534
  0.2121031279002057  0.8250669571164210  0.6766520725428662
  0.7124787837394724  0.4881799078760374  0.1765889536169112
  0.2146179459075793  0.3252422723940064  0.8332952604277681
  0.7158670674396908  0.2450798779605282  0.0032274526615372
  0.2161875241020071  0.5676640859565989  0.0065074048722817
  0.7092559412795391  0.7448700204858738  0.5067899563465142
  0.2097111410243016  0.0671421486681367  0.5031289421933289
  0.2163718979501852  0.9405254164171317  0.8916141099783548
  0.7159117913804476  0.8719861497136442  0.1178322564070885
  0.2102520913507754  0.4401499237406414  0.6178977062803011
  0.7088305026988658  0.3720606101405293  0.3918234530399877
  0.2112119119863322  0.2049843046224473  0.2196398763545581
  0.7147271153794343  0.6075628466979537  0.7897885792361412
  0.2110168585907644  0.7051155559742871  0.2900610721603390
  0.7121316776718241  0.1078532115230875  0.7199647516055966
  0.2158673030042356  0.0662536066771720  0.0659603621004195
  0.7168105156954764  0.7464638365867021  0.9436246620787923
  0.2087324797228124  0.5661511408064511  0.4438775485169128
  0.7098258376509821  0.2458674264881577  0.5659704433909454
 
  0.00000000E+00  0.00000000E+00  0.00000000E+00
  0.00000000E+00  0.00000000E+00  0.00000000E+00
  0.00000000E+00  0.00000000E+00  0.00000000E+00
  0.00000000E+00  0.00000000E+00  0.00000000E+00
  0.00000000E+00  0.00000000E+00  0.00000000E+00
  0.00000000E+00  0.00000000E+00  0.00000000E+00
  0.00000000E+00  0.00000000E+00  0.00000000E+00
  0.00000000E+00  0.00000000E+00  0.00000000E+00
  0.00000000E+00  0.00000000E+00  0.00000000E+00
  0.00000000E+00  0.00000000E+00  0.00000000E+00
  0.00000000E+00  0.00000000E+00  0.00000000E+00
  0.00000000E+00  0.00000000E+00  0.00000000E+00
  0.00000000E+00  0.00000000E+00  0.00000000E+00
  0.00000000E+00  0.00000000E+00  0.00000000E+00
  0.00000000E+00  0.00000000E+00  0.00000000E+00
  0.00000000E+00  0.00000000E+00  0.00000000E+00
  0.00000000E+00  0.00000000E+00  0.00000000E+00
  0.00000000E+00  0.00000000E+00  0.00000000E+00
  0.00000000E+00  0.00000000E+00  0.00000000E+00
  0.00000000E+00  0.00000000E+00  0.00000000E+00
