Poscar file generated with pyiron       
   1.00000000000000     
     4.7828965056907302    0.0105722500651311   -0.0847922391980220
    -0.0219238475131706   10.4726110633154406    0.2070828103154295
     0.3185986745497887   -0.3514832197999949   17.8021106400189346
   Cs   I    Pb
     4    12     4
Direct
  0.6835731040489291  0.0252969141858326  0.3525438893383518
  0.1833603819445194  0.8644393623843468  0.6958596371522626
  0.6805287626330196  0.5256985154720616  0.1958049091232721
  0.1802480090199249  0.3647037933936380  0.8525955932928478
  0.6751997589741453  0.2842342947335215  0.0227947515883952
  0.1749985348304919  0.6069012121138010  0.0253587031526845
  0.6876706708648520  0.7831001376383199  0.5258999395501786
  0.1869337607990292  0.1054657050750543  0.5226558446072583
  0.1749940042374525  0.9805546601769171  0.9109366157229694
  0.6746587657602191  0.9103864497158096  0.1370756974020895
  0.1871271394001660  0.4789880141934478  0.6372421278566260
  0.6876031697969134  0.4097888015511544  0.4111313779292238
  0.1815446287532878  0.2428573534949320  0.2393431202017160
  0.6808492498023564  0.6472165903344016  0.8089023606049410
  0.1830652662345016  0.7427846258610805  0.3092297821044009
  0.6825017203703179  0.1470723632892820  0.7394462435132992
  0.1746026807681761  0.1049493896948548  0.0853490804430046
  0.6745560750097328  0.7859837755212499  0.9626937911718410
  0.1880552413061763  0.6041751187433606  0.4631146134738841
  0.6872260076130390  0.2846305315369905  0.5853451503241137
 
  0.00000000E+00  0.00000000E+00  0.00000000E+00
  0.00000000E+00  0.00000000E+00  0.00000000E+00
  0.00000000E+00  0.00000000E+00  0.00000000E+00
  0.00000000E+00  0.00000000E+00  0.00000000E+00
  0.00000000E+00  0.00000000E+00  0.00000000E+00
  0.00000000E+00  0.00000000E+00  0.00000000E+00
  0.00000000E+00  0.00000000E+00  0.00000000E+00
  0.00000000E+00  0.00000000E+00  0.00000000E+00
  0.00000000E+00  0.00000000E+00  0.00000000E+00
  0.00000000E+00  0.00000000E+00  0.00000000E+00
  0.00000000E+00  0.00000000E+00  0.00000000E+00
  0.00000000E+00  0.00000000E+00  0.00000000E+00
  0.00000000E+00  0.00000000E+00  0.00000000E+00
  0.00000000E+00  0.00000000E+00  0.00000000E+00
  0.00000000E+00  0.00000000E+00  0.00000000E+00
  0.00000000E+00  0.00000000E+00  0.00000000E+00
  0.00000000E+00  0.00000000E+00  0.00000000E+00
  0.00000000E+00  0.00000000E+00  0.00000000E+00
  0.00000000E+00  0.00000000E+00  0.00000000E+00
  0.00000000E+00  0.00000000E+00  0.00000000E+00
