Poscar file generated with pyiron       
   1.00000000000000     
     4.7862953953207734   -0.0017062709327928    0.1347773701072557
    -0.0048291942022009   10.4651648221991884    0.3420100925389489
    -0.4974999310239067   -0.5755923005192215   17.7937044438609178
   Cs   I    Pb
     4    12     4
Direct
  0.6557607715241993  0.0390140560381373  0.3597356375998896
  0.1542835416923273  0.8747553707595357  0.7033301610857677
  0.6533103332790298  0.5383525337118673  0.2033746212794018
  0.1518117921697779  0.3741662414519548  0.8597486351685215
  0.6493703014303747  0.2945683296483230  0.0298003387628949
  0.1493095526686896  0.6164252492692071  0.0331941337495427
  0.6578297124571326  0.7965076531291490  0.5331886388041935
  0.1577996555271307  0.1184883831139862  0.5298379200137245
  0.1489236952432328  0.9898771286059357  0.9184570797117961
  0.6494825693968500  0.9213071946725602  0.1446697342561713
  0.1576283582484966  0.4915823491234295  0.6446783365661451
  0.6581889255149511  0.4230208569277472  0.4184978179972745
  0.1540320999672564  0.2554464752349789  0.2461395143822924
  0.6524296744917519  0.6570246038395191  0.8166866274546113
  0.1550549779230509  0.7560791111082033  0.3167170226770050
  0.6534545543785466  0.1575585812967198  0.7462011554087379
  0.1491984864421660  0.1158142279761799  0.0925475237853767
  0.6487614068636578  0.7954354972346274  0.9705330917513069
  0.1583566728731228  0.6175455748117915  0.4705279344949914
  0.6578688666858704  0.2971716941292633  0.5926044036370302
 
  0.00000000E+00  0.00000000E+00  0.00000000E+00
  0.00000000E+00  0.00000000E+00  0.00000000E+00
  0.00000000E+00  0.00000000E+00  0.00000000E+00
  0.00000000E+00  0.00000000E+00  0.00000000E+00
  0.00000000E+00  0.00000000E+00  0.00000000E+00
  0.00000000E+00  0.00000000E+00  0.00000000E+00
  0.00000000E+00  0.00000000E+00  0.00000000E+00
  0.00000000E+00  0.00000000E+00  0.00000000E+00
  0.00000000E+00  0.00000000E+00  0.00000000E+00
  0.00000000E+00  0.00000000E+00  0.00000000E+00
  0.00000000E+00  0.00000000E+00  0.00000000E+00
  0.00000000E+00  0.00000000E+00  0.00000000E+00
  0.00000000E+00  0.00000000E+00  0.00000000E+00
  0.00000000E+00  0.00000000E+00  0.00000000E+00
  0.00000000E+00  0.00000000E+00  0.00000000E+00
  0.00000000E+00  0.00000000E+00  0.00000000E+00
  0.00000000E+00  0.00000000E+00  0.00000000E+00
  0.00000000E+00  0.00000000E+00  0.00000000E+00
  0.00000000E+00  0.00000000E+00  0.00000000E+00
  0.00000000E+00  0.00000000E+00  0.00000000E+00
