Poscar file generated with pyiron       
   1.00000000000000     
     4.7813189999999999    0.0251220000000000    0.2019390000000000
    -0.0693180000000000   10.4709360000000000    0.2195370000000000
    -0.7516410000000000   -0.3822230000000000   17.7962519999999991
   Cs   I    Pb
     4    12     4
Direct
  0.6550587982564977  0.0645610657832094  0.3623433425054969
  0.1569354996097090  0.9025556583289287  0.7056168112198904
  0.6548715994415630  0.5658442349006521  0.2059514561687195
  0.1551288184453981  0.4047508791947791  0.8628205774791198
  0.6576809017816103  0.3251268786931405  0.0329033835817611
  0.1567986291487600  0.6486621792245231  0.0361756676130867
  0.6544579812724507  0.8209478482911123  0.5358748757324179
  0.1542860568890205  0.1435017958164480  0.5325859280322334
  0.1571450671075993  0.0212710047077138  0.9210468734083719
  0.6571517604199855  0.9514682594146393  0.1472972702084903
  0.1546164625478781  0.5171937583960826  0.6471185892384170
  0.6537211256316411  0.4476317257043192  0.4213740445188279
  0.1555028123530349  0.2833420317266331  0.2494710604819659
  0.6571244953456343  0.6870270424125877  0.8193884831686589
  0.1548320460754411  0.7818294913229664  0.3194411702096218
  0.6552022218777722  0.1857771028155923  0.7497824534844568
  0.1576144212039168  0.1460058456401967  0.0955388356834916
  0.6575902862433480  0.8271478084956883  0.9728783179246463
  0.1542549648940366  0.6422711594288586  0.4729720700368034
  0.6540514332832430  0.3226251046740671  0.5955961237178258
 
  0.00000000E+00  0.00000000E+00  0.00000000E+00
  0.00000000E+00  0.00000000E+00  0.00000000E+00
  0.00000000E+00  0.00000000E+00  0.00000000E+00
  0.00000000E+00  0.00000000E+00  0.00000000E+00
  0.00000000E+00  0.00000000E+00  0.00000000E+00
  0.00000000E+00  0.00000000E+00  0.00000000E+00
  0.00000000E+00  0.00000000E+00  0.00000000E+00
  0.00000000E+00  0.00000000E+00  0.00000000E+00
  0.00000000E+00  0.00000000E+00  0.00000000E+00
  0.00000000E+00  0.00000000E+00  0.00000000E+00
  0.00000000E+00  0.00000000E+00  0.00000000E+00
  0.00000000E+00  0.00000000E+00  0.00000000E+00
  0.00000000E+00  0.00000000E+00  0.00000000E+00
  0.00000000E+00  0.00000000E+00  0.00000000E+00
  0.00000000E+00  0.00000000E+00  0.00000000E+00
  0.00000000E+00  0.00000000E+00  0.00000000E+00
  0.00000000E+00  0.00000000E+00  0.00000000E+00
  0.00000000E+00  0.00000000E+00  0.00000000E+00
  0.00000000E+00  0.00000000E+00  0.00000000E+00
  0.00000000E+00  0.00000000E+00  0.00000000E+00
