Poscar file generated with pyiron       
   1.00000000000000     
     4.7842048825172716    0.0646189559213802    0.1059698323528439
    -0.1467480838646860   10.4676812289248549    0.1134957215884601
    -0.3906572384648324   -0.2007023842635391   17.8084656308618925
   Cs   I    Pb
     4    12     4
Direct
  0.6933136743383459  0.9770257433318199  0.3345746409164777
  0.1962099526442152  0.8142941980807046  0.6779198132391629
  0.6969392114512907  0.4776205188484511  0.1779274820877431
  0.1985393102003038  0.3151428739643811  0.8345884825273379
  0.7013009929264076  0.2358888434560439  0.0047099104100558
  0.2017572611342480  0.5583502608835756  0.0078519338632401
  0.6908801926443382  0.7338787291591441  0.5078262414405555
  0.1910785066495666  0.0562052466985347  0.5047284015943179
  0.2022707840386316  0.9316826966149518  0.8931410823816215
  0.7011708481690268  0.8623406179864378  0.1193791577176210
  0.1911029001561671  0.4298588940478644  0.6193506253228994
  0.6902632911801136  0.3604228225244479  0.3931837776240297
  0.1958867356614010  0.1948695699413288  0.2213359705576694
  0.6978539475100708  0.5979056255503019  0.7914916903619083
  0.1945990315794628  0.6941819104230590  0.2914850944004966
  0.6968595241167322  0.0972279261031553  0.7213333943857818
  0.2014909633559830  0.0567800076502053  0.0674200679244750
  0.7024619742838956  0.7372590711692386  0.9451145088866315
  0.1901118874292635  0.5548984281320720  0.4451295909836542
  0.6907146746136029  0.2352977229822888  0.5674444499683988
 
  0.00000000E+00  0.00000000E+00  0.00000000E+00
  0.00000000E+00  0.00000000E+00  0.00000000E+00
  0.00000000E+00  0.00000000E+00  0.00000000E+00
  0.00000000E+00  0.00000000E+00  0.00000000E+00
  0.00000000E+00  0.00000000E+00  0.00000000E+00
  0.00000000E+00  0.00000000E+00  0.00000000E+00
  0.00000000E+00  0.00000000E+00  0.00000000E+00
  0.00000000E+00  0.00000000E+00  0.00000000E+00
  0.00000000E+00  0.00000000E+00  0.00000000E+00
  0.00000000E+00  0.00000000E+00  0.00000000E+00
  0.00000000E+00  0.00000000E+00  0.00000000E+00
  0.00000000E+00  0.00000000E+00  0.00000000E+00
  0.00000000E+00  0.00000000E+00  0.00000000E+00
  0.00000000E+00  0.00000000E+00  0.00000000E+00
  0.00000000E+00  0.00000000E+00  0.00000000E+00
  0.00000000E+00  0.00000000E+00  0.00000000E+00
  0.00000000E+00  0.00000000E+00  0.00000000E+00
  0.00000000E+00  0.00000000E+00  0.00000000E+00
  0.00000000E+00  0.00000000E+00  0.00000000E+00
  0.00000000E+00  0.00000000E+00  0.00000000E+00
