Poscar file generated with pyiron       
   1.00000000000000     
     4.7863369999999996    0.0444880000000000    0.1829490000000000
    -0.1214320000000000   10.4613669999999992    0.3511930000000000
    -0.6722750000000000   -0.6026640000000000   17.7944150000000008
   Cs   I    Pb
     4    12     4
Direct
  0.6647034136498107  0.9872923401673717  0.3437399390601925
  0.1680101092035997  0.8222328168237709  0.6877395858904194
  0.6636129018651360  0.4884650755475874  0.1874455953712229
  0.1684443154317208  0.3229852929005474  0.8438074235707944
  0.6660044707715116  0.2452944214261308  0.0140098731027578
  0.1653393390294866  0.5676704869578231  0.0170728014028541
  0.6669353569376995  0.7429348956060409  0.5177960183342591
  0.1661384603368887  0.0644844427030122  0.5140469005732058
  0.1663584666481128  0.9407622049286459  0.9023188675814779
  0.6647427562129522  0.8717781921402477  0.1286413074054238
  0.1667569169123766  0.4376053236915425  0.6289602633261566
  0.6660611203682549  0.3700628146220950  0.4027630555855168
  0.1640448987623842  0.2052060265495612  0.2302401201839075
  0.6681613585332968  0.6059215018894832  0.8010673687545165
  0.1639458292285454  0.7042071236751823  0.3016041135107344
  0.6681210879882613  0.1049950346601776  0.7305290454215267
  0.1651837151499151  0.0662341858159650  0.0766174786476199
  0.6657860321459097  0.7463473226467912  0.9543847303138762
  0.1664081241641782  0.5642726237670317  0.4551058733197522
  0.6666475831049183  0.2433376645475320  0.5767787955892842
 
  0.00000000E+00  0.00000000E+00  0.00000000E+00
  0.00000000E+00  0.00000000E+00  0.00000000E+00
  0.00000000E+00  0.00000000E+00  0.00000000E+00
  0.00000000E+00  0.00000000E+00  0.00000000E+00
  0.00000000E+00  0.00000000E+00  0.00000000E+00
  0.00000000E+00  0.00000000E+00  0.00000000E+00
  0.00000000E+00  0.00000000E+00  0.00000000E+00
  0.00000000E+00  0.00000000E+00  0.00000000E+00
  0.00000000E+00  0.00000000E+00  0.00000000E+00
  0.00000000E+00  0.00000000E+00  0.00000000E+00
  0.00000000E+00  0.00000000E+00  0.00000000E+00
  0.00000000E+00  0.00000000E+00  0.00000000E+00
  0.00000000E+00  0.00000000E+00  0.00000000E+00
  0.00000000E+00  0.00000000E+00  0.00000000E+00
  0.00000000E+00  0.00000000E+00  0.00000000E+00
  0.00000000E+00  0.00000000E+00  0.00000000E+00
  0.00000000E+00  0.00000000E+00  0.00000000E+00
  0.00000000E+00  0.00000000E+00  0.00000000E+00
  0.00000000E+00  0.00000000E+00  0.00000000E+00
  0.00000000E+00  0.00000000E+00  0.00000000E+00
