Poscar file generated with pyiron       
   1.00000000000000     
     4.7880277891968079    0.0103046957702231    0.0858653387087853
    -0.0290295484729668   10.4595990869039355    0.3681680497015384
    -0.3146185825301239   -0.6214767732405875   17.8020840240843867
   Cs   I    Pb
     4    12     4
Direct
  0.7454448605935091  0.0973188483993725  0.3534360571008529
  0.2455114427793257  0.9317547509888355  0.6972033604930814
  0.7461624317409802  0.5989293504239181  0.1975704593825844
  0.2466286267219525  0.4333253408399411  0.8536684388699566
  0.7472202774107035  0.3561260863980995  0.0240257377776254
  0.2474036838327094  0.6775825800022507  0.0273654139877508
  0.7443460929688894  0.8527643463091793  0.5273554988439759
  0.2441493135703133  0.1742738792499425  0.5238756818274809
  0.2473360724362955  0.0509954834873922  0.9126561861661657
  0.7471879750064762  0.9826136072085586  0.1387799090891499
  0.2442627183778776  0.5475012385779739  0.6388761715254341
  0.7443589966984926  0.4797093992923211  0.4126513346628191
  0.2461338084559611  0.3158493633098085  0.2404825024826405
  0.7457727843461861  0.7163571317804673  0.8113581770902050
  0.2460736464584859  0.8141476920331587  0.3114078191986381
  0.7459259205259298  0.2147675453148337  0.7405318136767246
  0.2475027090614037  0.1772977191113757  0.0867116339014310
  0.7480765888991563  0.8566003286972347  0.9647624925241036
  0.2443994759998011  0.6738254167091248  0.4648690820243499
  0.7442495337770501  0.3530378055708236  0.5866746477695743
 
  0.00000000E+00  0.00000000E+00  0.00000000E+00
  0.00000000E+00  0.00000000E+00  0.00000000E+00
  0.00000000E+00  0.00000000E+00  0.00000000E+00
  0.00000000E+00  0.00000000E+00  0.00000000E+00
  0.00000000E+00  0.00000000E+00  0.00000000E+00
  0.00000000E+00  0.00000000E+00  0.00000000E+00
  0.00000000E+00  0.00000000E+00  0.00000000E+00
  0.00000000E+00  0.00000000E+00  0.00000000E+00
  0.00000000E+00  0.00000000E+00  0.00000000E+00
  0.00000000E+00  0.00000000E+00  0.00000000E+00
  0.00000000E+00  0.00000000E+00  0.00000000E+00
  0.00000000E+00  0.00000000E+00  0.00000000E+00
  0.00000000E+00  0.00000000E+00  0.00000000E+00
  0.00000000E+00  0.00000000E+00  0.00000000E+00
  0.00000000E+00  0.00000000E+00  0.00000000E+00
  0.00000000E+00  0.00000000E+00  0.00000000E+00
  0.00000000E+00  0.00000000E+00  0.00000000E+00
  0.00000000E+00  0.00000000E+00  0.00000000E+00
  0.00000000E+00  0.00000000E+00  0.00000000E+00
  0.00000000E+00  0.00000000E+00  0.00000000E+00
