Poscar file generated with pyiron       
   1.00000000000000     
     4.7837865280446401    0.0388043554039288   -0.0554706198794410
    -0.0819278634927968   10.4713880578238090    0.2291781403248478
     0.2014863157235545   -0.3867074231273649   17.8076852465276438
   Cs   I    Pb
     4    12     4
Direct
  0.6812231773639654  0.0286117161131562  0.3531692300075692
  0.1813486301399765  0.8660177347932492  0.6964994067686456
  0.6799104542114167  0.5286921577419048  0.1965113288042298
  0.1799442157831114  0.3659298859635195  0.8532143203969421
  0.6781580718872792  0.2858823593828901  0.0233489588952756
  0.1781578474199411  0.6083124112392648  0.0263766770078135
  0.6841792581915611  0.7857161994396725  0.5264083325935599
  0.1835306551504056  0.1079714488686535  0.5233648622259581
  0.1778125733898722  0.9817029120640171  0.9116632668819303
  0.6782200629703928  0.9123761757528573  0.1379325874385080
  0.1838617036260674  0.4815909566741718  0.6378695345776024
  0.6841600716873709  0.4122713356663980  0.4116465044643285
  0.1802353493640636  0.2456689193147972  0.2397488608563589
  0.6806987761752746  0.6488177027928113  0.8097249370799009
  0.1808167012223172  0.7455226519708698  0.3099768340944876
  0.6811719063737153  0.1487591962520884  0.7398072307316610
  0.1779549809559282  0.1068020038472615  0.0859923741383820
  0.6773851072474134  0.7873433000650738  0.9635831421365831
  0.1844148049558493  0.6067496805815554  0.4636609302748019
  0.6840498364155330  0.2871407488695447  0.5860042285652426
 
  0.00000000E+00  0.00000000E+00  0.00000000E+00
  0.00000000E+00  0.00000000E+00  0.00000000E+00
  0.00000000E+00  0.00000000E+00  0.00000000E+00
  0.00000000E+00  0.00000000E+00  0.00000000E+00
  0.00000000E+00  0.00000000E+00  0.00000000E+00
  0.00000000E+00  0.00000000E+00  0.00000000E+00
  0.00000000E+00  0.00000000E+00  0.00000000E+00
  0.00000000E+00  0.00000000E+00  0.00000000E+00
  0.00000000E+00  0.00000000E+00  0.00000000E+00
  0.00000000E+00  0.00000000E+00  0.00000000E+00
  0.00000000E+00  0.00000000E+00  0.00000000E+00
  0.00000000E+00  0.00000000E+00  0.00000000E+00
  0.00000000E+00  0.00000000E+00  0.00000000E+00
  0.00000000E+00  0.00000000E+00  0.00000000E+00
  0.00000000E+00  0.00000000E+00  0.00000000E+00
  0.00000000E+00  0.00000000E+00  0.00000000E+00
  0.00000000E+00  0.00000000E+00  0.00000000E+00
  0.00000000E+00  0.00000000E+00  0.00000000E+00
  0.00000000E+00  0.00000000E+00  0.00000000E+00
  0.00000000E+00  0.00000000E+00  0.00000000E+00
