Poscar file generated with pyiron       
   1.00000000000000     
     4.7828929999999996    0.0584310000000000    0.0838340000000000
    -0.1274240000000000   10.4814930000000004    0.0823270000000000
    -0.3081460000000000   -0.1401500000000000   17.8032000000000004
   Cs   I    Pb
     4    12     4
Direct
  0.7339054474258333  0.1145387973335943  0.3478701443124308
  0.2368264027752076  0.9565710095792639  0.6905162498151043
  0.7341665168672833  0.6151411870213082  0.1906884758023892
  0.2369414631791926  0.4580784898836612  0.8478800582901087
  0.7351862582748794  0.3759158622084797  0.0177139468364089
  0.2355099090865380  0.6992638844669443  0.0212398451364564
  0.7353426398241183  0.8732245956400391  0.5205059963638874
  0.2348061504572456  0.1967155812808201  0.5180683677959479
  0.2357056384564871  0.0723795649598884  0.9061361641117500
  0.7346295511491761  0.0023871450962858  0.1324365431643173
  0.2351199712677996  0.5706807193043133  0.6322819442405105
  0.7352108189962792  0.4995335676155221  0.4061808699098037
  0.2340372687480681  0.3329110935043431  0.2349881725917840
  0.7369882612976042  0.7401535633852774  0.8040232915101839
  0.2342326220763837  0.8323182942146374  0.3034809768317928
  0.7368795680805320  0.2392420226713057  0.7352741872847375
  0.2346743124833992  0.1965691086805847  0.0805089125028786
  0.7357383374521547  0.8782690482593267  0.9581672115870106
  0.2352615674606753  0.6941727770939536  0.4576040504936358
  0.7349141728083879  0.3759773998309015  0.5808788436616510
 
  0.00000000E+00  0.00000000E+00  0.00000000E+00
  0.00000000E+00  0.00000000E+00  0.00000000E+00
  0.00000000E+00  0.00000000E+00  0.00000000E+00
  0.00000000E+00  0.00000000E+00  0.00000000E+00
  0.00000000E+00  0.00000000E+00  0.00000000E+00
  0.00000000E+00  0.00000000E+00  0.00000000E+00
  0.00000000E+00  0.00000000E+00  0.00000000E+00
  0.00000000E+00  0.00000000E+00  0.00000000E+00
  0.00000000E+00  0.00000000E+00  0.00000000E+00
  0.00000000E+00  0.00000000E+00  0.00000000E+00
  0.00000000E+00  0.00000000E+00  0.00000000E+00
  0.00000000E+00  0.00000000E+00  0.00000000E+00
  0.00000000E+00  0.00000000E+00  0.00000000E+00
  0.00000000E+00  0.00000000E+00  0.00000000E+00
  0.00000000E+00  0.00000000E+00  0.00000000E+00
  0.00000000E+00  0.00000000E+00  0.00000000E+00
  0.00000000E+00  0.00000000E+00  0.00000000E+00
  0.00000000E+00  0.00000000E+00  0.00000000E+00
  0.00000000E+00  0.00000000E+00  0.00000000E+00
  0.00000000E+00  0.00000000E+00  0.00000000E+00
