Poscar file generated with pyiron       
   1.00000000000000     
     4.7839840000000002   -0.0013810000000000    0.1773160000000000
    -0.0000770000000000   10.4680499999999999    0.1660760000000000
    -0.6582360000000000   -0.2830900000000000   17.7936160000000001
   Cs   I    Pb
     4    12     4
Direct
  0.7348780043459371  0.0922269248914560  0.3349945198302109
  0.2347668254666502  0.9284413323801743  0.6784037452990930
  0.7345924261690442  0.5914731320119415  0.1784558382006693
  0.2343814436805687  0.4276630553297167  0.8349277269129658
  0.7339972086558859  0.3475793916652066  0.0049771854993068
  0.2340957651416176  0.6697211696508489  0.0083024456605827
  0.7346000844380143  0.8499164626774345  0.5082900830846100
  0.2350268853563904  0.1720086345386989  0.5050460220448656
  0.2339638796165460  0.0430358225806060  0.8935651072920479
  0.7340501302763656  0.9745916048314527  0.1198325978004320
  0.2348084006597944  0.5450392088590874  0.6198044640555835
  0.7348183491382585  0.4766679183670988  0.3936110510747426
  0.2347346716556089  0.3085338468106329  0.2212499182373548
  0.7344516881901910  0.7104011805369552  0.7918062368758498
  0.2347645248359456  0.8091661552558804  0.2917359097787795
  0.7344671849871247  0.2112684320256619  0.7213195453370176
  0.2340319427577242  0.1688361920103816  0.0677065859278301
  0.7339673571358887  0.8487397154036174  0.9456283791634092
  0.2346458577778989  0.6709802422650739  0.4456431317663743
  0.7350122820174718  0.3508437649555560  0.5677249933640667
 
  0.00000000E+00  0.00000000E+00  0.00000000E+00
  0.00000000E+00  0.00000000E+00  0.00000000E+00
  0.00000000E+00  0.00000000E+00  0.00000000E+00
  0.00000000E+00  0.00000000E+00  0.00000000E+00
  0.00000000E+00  0.00000000E+00  0.00000000E+00
  0.00000000E+00  0.00000000E+00  0.00000000E+00
  0.00000000E+00  0.00000000E+00  0.00000000E+00
  0.00000000E+00  0.00000000E+00  0.00000000E+00
  0.00000000E+00  0.00000000E+00  0.00000000E+00
  0.00000000E+00  0.00000000E+00  0.00000000E+00
  0.00000000E+00  0.00000000E+00  0.00000000E+00
  0.00000000E+00  0.00000000E+00  0.00000000E+00
  0.00000000E+00  0.00000000E+00  0.00000000E+00
  0.00000000E+00  0.00000000E+00  0.00000000E+00
  0.00000000E+00  0.00000000E+00  0.00000000E+00
  0.00000000E+00  0.00000000E+00  0.00000000E+00
  0.00000000E+00  0.00000000E+00  0.00000000E+00
  0.00000000E+00  0.00000000E+00  0.00000000E+00
  0.00000000E+00  0.00000000E+00  0.00000000E+00
  0.00000000E+00  0.00000000E+00  0.00000000E+00
