Poscar file generated with pyiron       
   1.00000000000000     
     4.7774828502189877    0.0586449367215137    0.2339425247311325
    -0.1442144563089751   10.4695877587238382    0.2797500728008908
    -0.8668122208712299   -0.4796950633001418   17.7895508415547390
   Cs   I    Pb
     4    12     4
Direct
  0.6522491897851831  0.0027199885753169  0.3489862359851700
  0.1520655336942975  0.8418190635017587  0.6924530998893852
  0.6552222163679091  0.5032792472782517  0.1920945190577240
  0.1536343223922325  0.3417303331588451  0.8489281618031910
  0.6577348956546349  0.2609937039882920  0.0191697841951053
  0.1571048900411953  0.5835289514328559  0.0218642033278885
  0.6491699917615401  0.7609824002626223  0.5222648897618454
  0.1492949523303678  0.0832277566340785  0.5194229883369436
  0.1570361482402783  0.9574659471962086  0.9076763310102737
  0.6580116271361732  0.8873307892857994  0.1337685026601920
  0.1489809248716245  0.4572508266072586  0.6336496613199607
  0.6493754332000006  0.3875563136633646  0.4075280049395211
  0.1544369530567950  0.2205602026681904  0.2356995106951550
  0.6537501776901973  0.6246637039744384  0.8056586035345971
  0.1533322533312456  0.7201997422958809  0.3055728873847729
  0.6520858987671930  0.1247227500382526  0.7357592296780567
  0.1579231477390052  0.0819916480544726  0.0819137701420086
  0.6572904972067001  0.7629846441837018  0.9595318776214125
  0.1488956632003932  0.5819393940941742  0.4595556777768710
  0.6488017130720735  0.2627273111337510  0.5817212394218768
 
  0.00000000E+00  0.00000000E+00  0.00000000E+00
  0.00000000E+00  0.00000000E+00  0.00000000E+00
  0.00000000E+00  0.00000000E+00  0.00000000E+00
  0.00000000E+00  0.00000000E+00  0.00000000E+00
  0.00000000E+00  0.00000000E+00  0.00000000E+00
  0.00000000E+00  0.00000000E+00  0.00000000E+00
  0.00000000E+00  0.00000000E+00  0.00000000E+00
  0.00000000E+00  0.00000000E+00  0.00000000E+00
  0.00000000E+00  0.00000000E+00  0.00000000E+00
  0.00000000E+00  0.00000000E+00  0.00000000E+00
  0.00000000E+00  0.00000000E+00  0.00000000E+00
  0.00000000E+00  0.00000000E+00  0.00000000E+00
  0.00000000E+00  0.00000000E+00  0.00000000E+00
  0.00000000E+00  0.00000000E+00  0.00000000E+00
  0.00000000E+00  0.00000000E+00  0.00000000E+00
  0.00000000E+00  0.00000000E+00  0.00000000E+00
  0.00000000E+00  0.00000000E+00  0.00000000E+00
  0.00000000E+00  0.00000000E+00  0.00000000E+00
  0.00000000E+00  0.00000000E+00  0.00000000E+00
  0.00000000E+00  0.00000000E+00  0.00000000E+00
