Poscar file generated with pyiron       
   1.00000000000000     
     4.7869523329031693   -0.0976101946999919    0.0079122462054388
     0.2099440693526746   10.4624583314311685    0.3641996110151589
    -0.0404922282608620   -0.6186126744495654   17.8066962569370340
   Cs   I    Pb
     4    12     4
Direct
  0.6893801134104410  0.0023252849806354  0.3389994636545253
  0.1915879760195345  0.8386449704869484  0.6830711379290384
  0.6876028697028715  0.5040258302949657  0.1828121557541568
  0.1896011790758100  0.3394538542380836  0.8390873722162584
  0.6855223134210484  0.2611024383385475  0.0095617758353755
  0.1855919349184585  0.5831244783244823  0.0122311105615258
  0.6915656920720710  0.7583914570674709  0.5131454034037287
  0.1908203266082370  0.0800483149860682  0.5094432319029860
  0.1856969898701870  0.9567735646485285  0.8980421640877783
  0.6851096798574298  0.8873151978121896  0.1239912409119778
  0.1912660703768121  0.4531615003543371  0.6244303029364202
  0.6911186283364146  0.3853721946239679  0.3982997505721884
  0.1882979783921066  0.2209012934961709  0.2258795939895927
  0.6903000037599744  0.6223390548150836  0.7962351441572840
  0.1889456522259885  0.7194420134134147  0.2970531608200753
  0.6907942432762220  0.1211328110392603  0.7263187623216193
  0.1850286815255328  0.0821787978310539  0.0722801989252752
  0.6854099696182983  0.7620939845983179  0.9497659944376932
  0.1916409390691871  0.5794916226329990  0.4505965709003003
  0.6910725981091753  0.2587991299313084  0.5722104093369411
 
  0.00000000E+00  0.00000000E+00  0.00000000E+00
  0.00000000E+00  0.00000000E+00  0.00000000E+00
  0.00000000E+00  0.00000000E+00  0.00000000E+00
  0.00000000E+00  0.00000000E+00  0.00000000E+00
  0.00000000E+00  0.00000000E+00  0.00000000E+00
  0.00000000E+00  0.00000000E+00  0.00000000E+00
  0.00000000E+00  0.00000000E+00  0.00000000E+00
  0.00000000E+00  0.00000000E+00  0.00000000E+00
  0.00000000E+00  0.00000000E+00  0.00000000E+00
  0.00000000E+00  0.00000000E+00  0.00000000E+00
  0.00000000E+00  0.00000000E+00  0.00000000E+00
  0.00000000E+00  0.00000000E+00  0.00000000E+00
  0.00000000E+00  0.00000000E+00  0.00000000E+00
  0.00000000E+00  0.00000000E+00  0.00000000E+00
  0.00000000E+00  0.00000000E+00  0.00000000E+00
  0.00000000E+00  0.00000000E+00  0.00000000E+00
  0.00000000E+00  0.00000000E+00  0.00000000E+00
  0.00000000E+00  0.00000000E+00  0.00000000E+00
  0.00000000E+00  0.00000000E+00  0.00000000E+00
  0.00000000E+00  0.00000000E+00  0.00000000E+00
