Poscar file generated with pyiron       
   1.00000000000000     
     4.7816879976860616    0.0337895897217675    0.1905026048536544
    -0.0850231391878907   10.4726580164739804    0.2886440008931553
    -0.7049759159013439   -0.5022013791787560   17.7927012511825886
   Cs   I    Pb
     4    12     4
Direct
  0.7438407033540720  0.1107212127129125  0.3462955725359648
  0.2430387896813877  0.9489996379271644  0.6894662981569663
  0.7448309830491494  0.6113536852342495  0.1895278585077967
  0.2455680378280770  0.4498545929497388  0.8462119803916257
  0.7462632724680819  0.3700231133900448  0.0163127630091347
  0.2462837391587180  0.6924820027444463  0.0193496747190840
  0.7418878787122495  0.8680665226661751  0.5193604378511670
  0.2419340054749423  0.1903839906600144  0.5163850116597879
  0.2461730309860241  0.0656203539968191  0.9046288313099426
  0.7463999913694326  0.9965962845579580  0.1309857805358178
  0.2417930279014805  0.5641545689208854  0.6308386106646103
  0.7419675196620047  0.4945427744583127  0.4048512222468232
  0.2444965060429444  0.3286518729136276  0.2329812397413578
  0.7447401819679027  0.7325616908413976  0.8029439452552282
  0.2439312577274557  0.8280298498737209  0.3030278097442437
  0.7440530387186993  0.2317550557349722  0.7330377126608894
  0.2466187276711082  0.1908655666631024  0.0789729326267549
  0.7464221883784453  0.8714087818870877  0.9566615324803620
  0.2417157587391449  0.6890284411032301  0.4566999561578933
  0.7415216523431920  0.3696194490975739  0.5790233292963467
 
  0.00000000E+00  0.00000000E+00  0.00000000E+00
  0.00000000E+00  0.00000000E+00  0.00000000E+00
  0.00000000E+00  0.00000000E+00  0.00000000E+00
  0.00000000E+00  0.00000000E+00  0.00000000E+00
  0.00000000E+00  0.00000000E+00  0.00000000E+00
  0.00000000E+00  0.00000000E+00  0.00000000E+00
  0.00000000E+00  0.00000000E+00  0.00000000E+00
  0.00000000E+00  0.00000000E+00  0.00000000E+00
  0.00000000E+00  0.00000000E+00  0.00000000E+00
  0.00000000E+00  0.00000000E+00  0.00000000E+00
  0.00000000E+00  0.00000000E+00  0.00000000E+00
  0.00000000E+00  0.00000000E+00  0.00000000E+00
  0.00000000E+00  0.00000000E+00  0.00000000E+00
  0.00000000E+00  0.00000000E+00  0.00000000E+00
  0.00000000E+00  0.00000000E+00  0.00000000E+00
  0.00000000E+00  0.00000000E+00  0.00000000E+00
  0.00000000E+00  0.00000000E+00  0.00000000E+00
  0.00000000E+00  0.00000000E+00  0.00000000E+00
  0.00000000E+00  0.00000000E+00  0.00000000E+00
  0.00000000E+00  0.00000000E+00  0.00000000E+00
