Poscar file generated with pyiron       
   1.00000000000000     
     4.7871628073963395   -0.0013424202094413   -0.1189916196937679
     0.0062624765992749   10.4702798702187323    0.2357794805368493
     0.4401842325952833   -0.3985473915844535   17.7935517023861998
   Cs   I    Pb
     4    12     4
Direct
  0.6713038090723115  0.0209447892601619  0.3433030174001104
  0.1725536364803982  0.8577408846931130  0.6869134971205946
  0.6696763562635011  0.5220102286989472  0.1869916037601723
  0.1701133430262316  0.3591782333622597  0.8434655611517810
  0.6665957527661782  0.2799017741211724  0.0138919277513852
  0.1662601750815212  0.6022085600288475  0.0167333200763656
  0.6739221753415803  0.7772814677138946  0.5168029935117070
  0.1732282857700113  0.0988872107252061  0.5141377031617606
  0.1667559374563315  0.9756327162249127  0.9021912808170722
  0.6658252283911325  0.9063022428013815  0.1284562018326425
  0.1733634340007694  0.4726678753555180  0.6285447486858837
  0.6738266014917266  0.4041287795113799  0.4021853555449357
  0.1697763467432674  0.2394938557033240  0.2304642954145086
  0.6692831280570605  0.6418501103297434  0.8003301034293336
  0.1706960331699702  0.7384027583310238  0.3005666588155738
  0.6699880691861489  0.1402556565040219  0.7306591985063806
  0.1653891413026345  0.1009003651771106  0.0765707478127918
  0.6659823465882060  0.7812510754792698  0.9540419317149595
  0.1741237524044860  0.5984455734005237  0.4541526172593708
  0.6735004626099231  0.2782095588035680  0.5765532177866608
 
  0.00000000E+00  0.00000000E+00  0.00000000E+00
  0.00000000E+00  0.00000000E+00  0.00000000E+00
  0.00000000E+00  0.00000000E+00  0.00000000E+00
  0.00000000E+00  0.00000000E+00  0.00000000E+00
  0.00000000E+00  0.00000000E+00  0.00000000E+00
  0.00000000E+00  0.00000000E+00  0.00000000E+00
  0.00000000E+00  0.00000000E+00  0.00000000E+00
  0.00000000E+00  0.00000000E+00  0.00000000E+00
  0.00000000E+00  0.00000000E+00  0.00000000E+00
  0.00000000E+00  0.00000000E+00  0.00000000E+00
  0.00000000E+00  0.00000000E+00  0.00000000E+00
  0.00000000E+00  0.00000000E+00  0.00000000E+00
  0.00000000E+00  0.00000000E+00  0.00000000E+00
  0.00000000E+00  0.00000000E+00  0.00000000E+00
  0.00000000E+00  0.00000000E+00  0.00000000E+00
  0.00000000E+00  0.00000000E+00  0.00000000E+00
  0.00000000E+00  0.00000000E+00  0.00000000E+00
  0.00000000E+00  0.00000000E+00  0.00000000E+00
  0.00000000E+00  0.00000000E+00  0.00000000E+00
  0.00000000E+00  0.00000000E+00  0.00000000E+00
