Poscar file generated with pyiron       
   1.00000000000000     
     4.7839039999999997   -0.0215860000000000    0.1657050000000000
     0.0361070000000000   10.4703730000000004    0.1360490000000000
    -0.6089090000000000   -0.2301830000000000   17.7967219999999990
   Cs   I    Pb
     4    12     4
Direct
  0.7257083851994324  0.0955451916329437  0.3360767167002336
  0.2339477886185506  0.9318070113682637  0.6796565408902708
  0.7259150073348621  0.5958039465130298  0.1796275156705462
  0.2328944664472914  0.4320071764579154  0.8359243119329562
  0.7278927346509789  0.3538613335380987  0.0062122470029351
  0.2284666990764634  0.6755953065417515  0.0096212041202151
  0.7305648435013765  0.8531138403611891  0.5093417436370160
  0.2293797804017572  0.1749669226585056  0.5060205839477945
  0.2293109032662031  0.0488457924088408  0.8947992529899267
  0.7266911403993248  0.9804297104631914  0.1208696246543184
  0.2298862141966325  0.5483845769660149  0.6207552523664077
  0.7300440697065440  0.4796969760534537  0.3947302052182025
  0.2257310193210174  0.3131695731809359  0.2227929545603615
  0.7331625645080493  0.7150316697991457  0.7933088930386205
  0.2263484437053265  0.8128694787080875  0.2928155127362757
  0.7329975601127430  0.2148586842828593  0.7223574648600533
  0.2266717657835926  0.1747841413179358  0.0689197155161807
  0.7292078978633114  0.8543827415483776  0.9469062921298530
  0.2303821534775352  0.6740927878318530  0.4466633425702398
  0.7294585304037184  0.3538418251820374  0.5686966150167265
 
  0.00000000E+00  0.00000000E+00  0.00000000E+00
  0.00000000E+00  0.00000000E+00  0.00000000E+00
  0.00000000E+00  0.00000000E+00  0.00000000E+00
  0.00000000E+00  0.00000000E+00  0.00000000E+00
  0.00000000E+00  0.00000000E+00  0.00000000E+00
  0.00000000E+00  0.00000000E+00  0.00000000E+00
  0.00000000E+00  0.00000000E+00  0.00000000E+00
  0.00000000E+00  0.00000000E+00  0.00000000E+00
  0.00000000E+00  0.00000000E+00  0.00000000E+00
  0.00000000E+00  0.00000000E+00  0.00000000E+00
  0.00000000E+00  0.00000000E+00  0.00000000E+00
  0.00000000E+00  0.00000000E+00  0.00000000E+00
  0.00000000E+00  0.00000000E+00  0.00000000E+00
  0.00000000E+00  0.00000000E+00  0.00000000E+00
  0.00000000E+00  0.00000000E+00  0.00000000E+00
  0.00000000E+00  0.00000000E+00  0.00000000E+00
  0.00000000E+00  0.00000000E+00  0.00000000E+00
  0.00000000E+00  0.00000000E+00  0.00000000E+00
  0.00000000E+00  0.00000000E+00  0.00000000E+00
  0.00000000E+00  0.00000000E+00  0.00000000E+00
