Poscar file generated with pyiron       
   1.00000000000000     
     4.7839264528849004    0.0879020766199403    0.1774024381129999
    -0.1994597611797309   10.4663644921167123    0.2291329916416503
    -0.6502836841869615   -0.4065374649721250   17.7927188738108413
   Cs   I    Pb
     4    12     4
Direct
  0.7409879011606736  0.1104305366272065  0.3490740601991659
  0.2395562373381248  0.9487637617731135  0.6923879208198668
  0.7407997242344161  0.6108709663568815  0.1923691442077500
  0.2409965329796179  0.4495638145435517  0.8491430076728660
  0.7416519322972329  0.3693962481354530  0.0193117901340746
  0.2415775410689590  0.6920778339028116  0.0223714885136778
  0.7396304014345935  0.8679987070635061  0.5222832667639625
  0.2396121020989228  0.1902638823542229  0.5193115575214318
  0.2418760769760823  0.0652692353325484  0.9076838382518887
  0.7417376401575690  0.9960351826523456  0.1339844465432274
  0.2394677108768899  0.5638728535432739  0.6338282139044289
  0.7398096732909525  0.4944943980773562  0.4077793607033998
  0.2410377455284569  0.3285162563415824  0.2359188928286447
  0.7402074941648980  0.7319921263827851  0.8059532784134699
  0.2406100377260947  0.8276805420762510  0.3058876137776560
  0.7407397262554156  0.2315958138345882  0.7360151890733918
  0.2417935663500841  0.1903325397917754  0.0820121259445467
  0.7419306608715633  0.8710659960012785  0.9596889779797575
  0.2395117858142873  0.6888475621228722  0.4596439825769145
  0.7393813184299020  0.3693938012141838  0.5819848628890464
 
  0.00000000E+00  0.00000000E+00  0.00000000E+00
  0.00000000E+00  0.00000000E+00  0.00000000E+00
  0.00000000E+00  0.00000000E+00  0.00000000E+00
  0.00000000E+00  0.00000000E+00  0.00000000E+00
  0.00000000E+00  0.00000000E+00  0.00000000E+00
  0.00000000E+00  0.00000000E+00  0.00000000E+00
  0.00000000E+00  0.00000000E+00  0.00000000E+00
  0.00000000E+00  0.00000000E+00  0.00000000E+00
  0.00000000E+00  0.00000000E+00  0.00000000E+00
  0.00000000E+00  0.00000000E+00  0.00000000E+00
  0.00000000E+00  0.00000000E+00  0.00000000E+00
  0.00000000E+00  0.00000000E+00  0.00000000E+00
  0.00000000E+00  0.00000000E+00  0.00000000E+00
  0.00000000E+00  0.00000000E+00  0.00000000E+00
  0.00000000E+00  0.00000000E+00  0.00000000E+00
  0.00000000E+00  0.00000000E+00  0.00000000E+00
  0.00000000E+00  0.00000000E+00  0.00000000E+00
  0.00000000E+00  0.00000000E+00  0.00000000E+00
  0.00000000E+00  0.00000000E+00  0.00000000E+00
  0.00000000E+00  0.00000000E+00  0.00000000E+00
