Poscar file generated with pyiron       
   1.00000000000000     
     4.7807619593422777    0.0138317248462727    0.2396707971294296
    -0.0414584127680695   10.4676537394075542    0.3276701050739368
    -0.8938649616784462   -0.5607959775061671   17.7849012505732595
   Cs   I    Pb
     4    12     4
Direct
  0.6483951340529837  0.0070752486919227  0.3435398983165242
  0.1445666251656463  0.8447728582370492  0.6868655456960637
  0.6503220008569276  0.5068053982920063  0.1868994767307493
  0.1470107453072589  0.3449567556327303  0.8434895315181877
  0.6514027741475694  0.2645886959293333  0.0134407167591332
  0.1514958557953189  0.5869057699124323  0.0168875363053213
  0.6434611785481456  0.7648244860106787  0.5165873767606645
  0.1433617533683488  0.0872237169396614  0.5137136791782654
  0.1507058384560558  0.9600944380855753  0.9021039654306201
  0.6523493720500841  0.8912381597813674  0.1282597125641451
  0.1425632205349297  0.4607156888299200  0.6282666800772840
  0.6438196284827341  0.3911622229068876  0.4020975516654729
  0.1501572119110752  0.2240280345536920  0.2300351472068262
  0.6461832670234868  0.6276386535819888  0.8002647485324970
  0.1491500850916422  0.7243194811147974  0.3001026704536326
  0.6451151039056918  0.1273941324660370  0.7301873452205216
  0.1524992514322286  0.0855377136551195  0.0761771062740573
  0.6513374725796185  0.7658915924774772  0.9541842250419544
  0.1434736325213095  0.5857774605243425  0.4539106944748911
  0.6427244362597970  0.2661512025019360  0.5764409423312804
 
  0.00000000E+00  0.00000000E+00  0.00000000E+00
  0.00000000E+00  0.00000000E+00  0.00000000E+00
  0.00000000E+00  0.00000000E+00  0.00000000E+00
  0.00000000E+00  0.00000000E+00  0.00000000E+00
  0.00000000E+00  0.00000000E+00  0.00000000E+00
  0.00000000E+00  0.00000000E+00  0.00000000E+00
  0.00000000E+00  0.00000000E+00  0.00000000E+00
  0.00000000E+00  0.00000000E+00  0.00000000E+00
  0.00000000E+00  0.00000000E+00  0.00000000E+00
  0.00000000E+00  0.00000000E+00  0.00000000E+00
  0.00000000E+00  0.00000000E+00  0.00000000E+00
  0.00000000E+00  0.00000000E+00  0.00000000E+00
  0.00000000E+00  0.00000000E+00  0.00000000E+00
  0.00000000E+00  0.00000000E+00  0.00000000E+00
  0.00000000E+00  0.00000000E+00  0.00000000E+00
  0.00000000E+00  0.00000000E+00  0.00000000E+00
  0.00000000E+00  0.00000000E+00  0.00000000E+00
  0.00000000E+00  0.00000000E+00  0.00000000E+00
  0.00000000E+00  0.00000000E+00  0.00000000E+00
  0.00000000E+00  0.00000000E+00  0.00000000E+00
