Poscar file generated with pyiron       
   1.00000000000000     
     4.7775590000000001    0.0411470000000000    0.2775570000000000
    -0.0980600000000000   10.4717610000000008    0.1650980000000000
    -1.0337660000000000   -0.3075060000000000   17.7751179999999991
   Cs   I    Pb
     4    12     4
Direct
  0.6129237379731052  0.0144262930221046  0.3426605534837606
  0.1109805776441775  0.8520498153916449  0.6859293601375143
  0.6130266083557174  0.5150767630675119  0.1857523941042842
  0.1140836570003074  0.3522034352391827  0.8424869994967210
  0.6166449194184835  0.2726784569921605  0.0127985722089008
  0.1168679539596340  0.5952169066110145  0.0156085857078025
  0.6091916748149799  0.7716515166308824  0.5159779234146384
  0.1090648612488536  0.0936173119606423  0.5128263102432697
  0.1168085759407163  0.9684766087073271  0.9010371743350092
  0.6170967371653617  0.8994522534000495  0.1274971260024742
  0.1089729097045122  0.4675781197799296  0.6273285399136768
  0.6090941163354273  0.3981586588206554  0.4011636937382264
  0.1130737020740611  0.2321350939140103  0.2294199010828351
  0.6126768333702515  0.6350428344619345  0.7993215825161428
  0.1123005306817575  0.7316376640546309  0.2995457984748953
  0.6125108248637403  0.1350084443403787  0.7292484351376203
  0.1174175044258874  0.0937451521949484  0.0754592064973565
  0.6173877003929107  0.7742477858642971  0.9530832070668609
  0.1090763009455955  0.5926401262859073  0.4532745595051608
  0.6084525351281371  0.2730825323377175  0.5752979441470316
 
  0.00000000E+00  0.00000000E+00  0.00000000E+00
  0.00000000E+00  0.00000000E+00  0.00000000E+00
  0.00000000E+00  0.00000000E+00  0.00000000E+00
  0.00000000E+00  0.00000000E+00  0.00000000E+00
  0.00000000E+00  0.00000000E+00  0.00000000E+00
  0.00000000E+00  0.00000000E+00  0.00000000E+00
  0.00000000E+00  0.00000000E+00  0.00000000E+00
  0.00000000E+00  0.00000000E+00  0.00000000E+00
  0.00000000E+00  0.00000000E+00  0.00000000E+00
  0.00000000E+00  0.00000000E+00  0.00000000E+00
  0.00000000E+00  0.00000000E+00  0.00000000E+00
  0.00000000E+00  0.00000000E+00  0.00000000E+00
  0.00000000E+00  0.00000000E+00  0.00000000E+00
  0.00000000E+00  0.00000000E+00  0.00000000E+00
  0.00000000E+00  0.00000000E+00  0.00000000E+00
  0.00000000E+00  0.00000000E+00  0.00000000E+00
  0.00000000E+00  0.00000000E+00  0.00000000E+00
  0.00000000E+00  0.00000000E+00  0.00000000E+00
  0.00000000E+00  0.00000000E+00  0.00000000E+00
  0.00000000E+00  0.00000000E+00  0.00000000E+00
