Poscar file generated with pyiron       
   1.00000000000000     
     4.7874527570134484    0.0749384010616277    0.0920016004244949
    -0.1697386140427982   10.4576971081937966    0.3984750638005139
    -0.3375996092775872   -0.6743458890708348   17.7956398315402318
   Cs   I    Pb
     4    12     4
Direct
  0.6796647923840327  0.0070050703689059  0.3416017008155680
  0.1803323309199527  0.8423074244635946  0.6851781784271539
  0.6798594944615256  0.5081089723836101  0.1852663184436605
  0.1813314241272272  0.3429745271534972  0.8416134811221885
  0.6798676024680858  0.2657575390211468  0.0117792781256461
  0.1790310446682256  0.5874739341720834  0.0152713659139074
  0.6794509854254235  0.7624693810384643  0.5152454391979400
  0.1803071518443251  0.0840853300949422  0.5118496056664118
  0.1786810538921672  0.9606106718709352  0.9004191137779760
  0.6797096300811434  0.8924485007995692  0.1265961180080776
  0.1803671849724391  0.4573544748912133  0.6267553554756651
  0.6792120722692190  0.3892652659615518  0.4004398973111602
  0.1794176858181970  0.2251078528247663  0.2283269137175580
  0.6808804134101204  0.6261010941935545  0.7989832422698442
  0.1801010195250665  0.7237984423024875  0.2990896837754360
  0.6816851711377798  0.1246708896457210  0.7285004869824042
  0.1795909800994129  0.0867804988264505  0.0746029831764488
  0.6788552180890306  0.7662470705502653  0.9524269859052462
  0.1791810908734621  0.5837270429245355  0.4526259477090421
  0.6804667905004538  0.2630871116587544  0.5745821585692816
 
  0.00000000E+00  0.00000000E+00  0.00000000E+00
  0.00000000E+00  0.00000000E+00  0.00000000E+00
  0.00000000E+00  0.00000000E+00  0.00000000E+00
  0.00000000E+00  0.00000000E+00  0.00000000E+00
  0.00000000E+00  0.00000000E+00  0.00000000E+00
  0.00000000E+00  0.00000000E+00  0.00000000E+00
  0.00000000E+00  0.00000000E+00  0.00000000E+00
  0.00000000E+00  0.00000000E+00  0.00000000E+00
  0.00000000E+00  0.00000000E+00  0.00000000E+00
  0.00000000E+00  0.00000000E+00  0.00000000E+00
  0.00000000E+00  0.00000000E+00  0.00000000E+00
  0.00000000E+00  0.00000000E+00  0.00000000E+00
  0.00000000E+00  0.00000000E+00  0.00000000E+00
  0.00000000E+00  0.00000000E+00  0.00000000E+00
  0.00000000E+00  0.00000000E+00  0.00000000E+00
  0.00000000E+00  0.00000000E+00  0.00000000E+00
  0.00000000E+00  0.00000000E+00  0.00000000E+00
  0.00000000E+00  0.00000000E+00  0.00000000E+00
  0.00000000E+00  0.00000000E+00  0.00000000E+00
  0.00000000E+00  0.00000000E+00  0.00000000E+00
