Poscar file generated with pyiron       
   1.00000000000000     
     4.7858250657639836    0.0098108605590537    0.1092470242673089
    -0.0301224982779458   10.4626468905307739    0.4174157632843365
    -0.3963116801169145   -0.7165832437305339   17.7909785551446262
   Cs   I    Pb
     4    12     4
Direct
  0.6933065730839016  0.0086083753535723  0.3432500460299722
  0.1937694991588202  0.8442743027074674  0.6870926054843798
  0.6920184383053770  0.5096650751788701  0.1870570958420849
  0.1927297687654885  0.3453363934018253  0.8432870342867040
  0.6922995196750276  0.2675762692525119  0.0135893410802475
  0.1921553397288988  0.5895679773763913  0.0168684861275734
  0.6940130724569682  0.7645694251097142  0.5168969620798781
  0.1942538434212948  0.0867127496185849  0.5135593011084607
  0.1926273424180767  0.9624835613962239  0.9020517862289894
  0.6920091290765519  0.8942767214349457  0.1283386321782149
  0.1941609243030287  0.4600803815495439  0.6283594250274719
  0.6943567677331769  0.3917435699935715  0.4020499373774228
  0.1928541289221927  0.2267600013937565  0.2301939705842542
  0.6932440030632524  0.6282864064535674  0.8006726560729177
  0.1927320881696981  0.7259512824903123  0.3007107371903673
  0.6933257006590066  0.1272974099987025  0.7300862367853672
  0.1921985376998553  0.0884864457339071  0.0762601867929302
  0.6920433332777166  0.7683985784816015  0.9541365523156138
  0.1940287395555533  0.5860030305190039  0.4542176139353269
  0.6943918177130385  0.2655741767430083  0.5762171993595406
 
  0.00000000E+00  0.00000000E+00  0.00000000E+00
  0.00000000E+00  0.00000000E+00  0.00000000E+00
  0.00000000E+00  0.00000000E+00  0.00000000E+00
  0.00000000E+00  0.00000000E+00  0.00000000E+00
  0.00000000E+00  0.00000000E+00  0.00000000E+00
  0.00000000E+00  0.00000000E+00  0.00000000E+00
  0.00000000E+00  0.00000000E+00  0.00000000E+00
  0.00000000E+00  0.00000000E+00  0.00000000E+00
  0.00000000E+00  0.00000000E+00  0.00000000E+00
  0.00000000E+00  0.00000000E+00  0.00000000E+00
  0.00000000E+00  0.00000000E+00  0.00000000E+00
  0.00000000E+00  0.00000000E+00  0.00000000E+00
  0.00000000E+00  0.00000000E+00  0.00000000E+00
  0.00000000E+00  0.00000000E+00  0.00000000E+00
  0.00000000E+00  0.00000000E+00  0.00000000E+00
  0.00000000E+00  0.00000000E+00  0.00000000E+00
  0.00000000E+00  0.00000000E+00  0.00000000E+00
  0.00000000E+00  0.00000000E+00  0.00000000E+00
  0.00000000E+00  0.00000000E+00  0.00000000E+00
  0.00000000E+00  0.00000000E+00  0.00000000E+00
