Poscar file generated with pyiron       
   1.00000000000000     
     4.7843732103712870    0.0518313636415605    0.0884111722938028
    -0.1133717868172339   10.4737023552347726    0.1627171323686035
    -0.3323029029266189   -0.2765517906536341   17.8043511834434369
   Cs   I    Pb
     4    12     4
Direct
  0.7056700395152202  0.9863252691241015  0.3352061896983213
  0.2052826966570174  0.8236546228202163  0.6786323399034297
  0.7084729620567525  0.4862711930916830  0.1785988327086862
  0.2087109929354941  0.3235998672713349  0.8350771761694743
  0.7112917067898538  0.2436880104014427  0.0052389041991587
  0.2117710075926349  0.5659983248687098  0.0084904359944469
  0.7032327914094333  0.7442920706624465  0.5084444676413702
  0.2030127486024497  0.0666053272846876  0.5052450323544576
  0.2114321328572105  0.9394201084000241  0.8937591429200473
  0.7120844664559458  0.8703221421367260  0.1199492684207992
  0.2034844969517098  0.4397601989392893  0.6198991140804400
  0.7032563424367015  0.3709297587922662  0.3936829997827504
  0.2075773129954526  0.2034729467847231  0.2217391582247457
  0.7082656078565285  0.6063189102427706  0.7919354744225983
  0.2064706014396230  0.7035711580099439  0.2918960263371252
  0.7072532712557060  0.1066487569959937  0.7217666064945503
  0.2119967662534086  0.0648370771289211  0.0679707650381328
  0.7129579303152118  0.7448640255712370  0.9457271763812238
  0.2027619597722999  0.5651559054608924  0.4457523446275428
  0.7028933238262873  0.2454117241094110  0.5679426368641151
 
  0.00000000E+00  0.00000000E+00  0.00000000E+00
  0.00000000E+00  0.00000000E+00  0.00000000E+00
  0.00000000E+00  0.00000000E+00  0.00000000E+00
  0.00000000E+00  0.00000000E+00  0.00000000E+00
  0.00000000E+00  0.00000000E+00  0.00000000E+00
  0.00000000E+00  0.00000000E+00  0.00000000E+00
  0.00000000E+00  0.00000000E+00  0.00000000E+00
  0.00000000E+00  0.00000000E+00  0.00000000E+00
  0.00000000E+00  0.00000000E+00  0.00000000E+00
  0.00000000E+00  0.00000000E+00  0.00000000E+00
  0.00000000E+00  0.00000000E+00  0.00000000E+00
  0.00000000E+00  0.00000000E+00  0.00000000E+00
  0.00000000E+00  0.00000000E+00  0.00000000E+00
  0.00000000E+00  0.00000000E+00  0.00000000E+00
  0.00000000E+00  0.00000000E+00  0.00000000E+00
  0.00000000E+00  0.00000000E+00  0.00000000E+00
  0.00000000E+00  0.00000000E+00  0.00000000E+00
  0.00000000E+00  0.00000000E+00  0.00000000E+00
  0.00000000E+00  0.00000000E+00  0.00000000E+00
  0.00000000E+00  0.00000000E+00  0.00000000E+00
