Poscar file generated with pyiron       
   1.00000000000000     
     4.7859911956504764    0.0009456977352138    0.0978008232612048
    -0.0060573027494972   10.4601367999137889    0.3250724207034850
    -0.3777357987982901   -0.5545048413572633   17.7891783642551111
   Cs   I    Pb
     4    12     4
Direct
  0.7324375843203922  0.1027524955309395  0.3493173767631321
  0.2310616809230859  0.9377788644113606  0.6929843229777656
  0.7331120717525111  0.6036409931607409  0.1931231270135409
  0.2317774426818752  0.4387978538090755  0.8493138696708413
  0.7325364914601943  0.3612857705527032  0.0195550697892455
  0.2335526214084034  0.6829229138654470  0.0230014801694150
  0.7312742596112403  0.8584886643062108  0.5228624747047081
  0.2311463054384462  0.1802512040647866  0.5196308849294266
  0.2335774805586664  0.0560326873333969  0.9081003294928588
  0.7326208047557552 -0.0121409804246576  0.1341901965276337
  0.2308426341222692  0.5537106584677319  0.6342198062116176
  0.7314593851366753  0.4855066657765693  0.4080973027794310
  0.2328267504609272  0.3205866668986343  0.2359356006023135
  0.7312851070983778  0.7217299354521975  0.8067222869723513
  0.2327575332292559  0.8199708760819343  0.3067054215734559
  0.7315954952111313  0.2207705432587494  0.7360453084124674
  0.2325248567933829  0.1822573221207230  0.0820843234582775
  0.7339768144533095  0.8616804644838415  0.9602558137794950
  0.2314362753863922  0.6797875402898521  0.4601760804225720
  0.7310238139937369  0.3592495225447505  0.5821962937259219
 
  0.00000000E+00  0.00000000E+00  0.00000000E+00
  0.00000000E+00  0.00000000E+00  0.00000000E+00
  0.00000000E+00  0.00000000E+00  0.00000000E+00
  0.00000000E+00  0.00000000E+00  0.00000000E+00
  0.00000000E+00  0.00000000E+00  0.00000000E+00
  0.00000000E+00  0.00000000E+00  0.00000000E+00
  0.00000000E+00  0.00000000E+00  0.00000000E+00
  0.00000000E+00  0.00000000E+00  0.00000000E+00
  0.00000000E+00  0.00000000E+00  0.00000000E+00
  0.00000000E+00  0.00000000E+00  0.00000000E+00
  0.00000000E+00  0.00000000E+00  0.00000000E+00
  0.00000000E+00  0.00000000E+00  0.00000000E+00
  0.00000000E+00  0.00000000E+00  0.00000000E+00
  0.00000000E+00  0.00000000E+00  0.00000000E+00
  0.00000000E+00  0.00000000E+00  0.00000000E+00
  0.00000000E+00  0.00000000E+00  0.00000000E+00
  0.00000000E+00  0.00000000E+00  0.00000000E+00
  0.00000000E+00  0.00000000E+00  0.00000000E+00
  0.00000000E+00  0.00000000E+00  0.00000000E+00
  0.00000000E+00  0.00000000E+00  0.00000000E+00
