Poscar file generated with pyiron       
   1.00000000000000     
     4.7814309066469400    0.0555091334711013    0.0822277191677446
    -0.1264962128221790   10.4744511275381011    0.0744993397185660
    -0.3039221006296937   -0.1283170672279552   17.7972747091060057
   Cs   I    Pb
     4    12     4
Direct
  0.7443570810279315  0.1099250977786994  0.3497360880643011
  0.2453325216227290  0.9491845193908881  0.6930560308199156
  0.7444599000011610  0.6109782631633141  0.1930357608107257
  0.2457328596605475  0.4503088853703987  0.8496206699114150
  0.7455321870583970  0.3703049349959148  0.0198156735323541
  0.2456792879611980  0.6927812348517088  0.0227652137715450
  0.7440840957174026  0.8670857157146727  0.5230057601851199
  0.2444625593644439  0.1899306884276694  0.5199350686389974
  0.2457982414235444  0.0661349881138247  0.9081110730572834
  0.7459221488967820  0.9965150406494864  0.1341962369697695
  0.2444783788057926  0.5635061941779725  0.6344346345496840
  0.7439611773756475  0.4938670315495649  0.4082044259677902
  0.2440565170767159  0.3281572899176715  0.2365944753036760
  0.7454612829714260  0.7325791691297635  0.8062065085844203
  0.2440996874020586  0.8273855484684676  0.3064846314608390
  0.7454064000666198  0.2319296289561262  0.7366326730247054
  0.2457149249484008  0.1909996259045522  0.0823905592610459
  0.7460777627727603  0.8717565842549144  0.9599798527900617
  0.2438285487525067  0.6882074960055197  0.4602007916225541
  0.7446353878936054  0.3691009611841075  0.5825382862272783
 
  0.00000000E+00  0.00000000E+00  0.00000000E+00
  0.00000000E+00  0.00000000E+00  0.00000000E+00
  0.00000000E+00  0.00000000E+00  0.00000000E+00
  0.00000000E+00  0.00000000E+00  0.00000000E+00
  0.00000000E+00  0.00000000E+00  0.00000000E+00
  0.00000000E+00  0.00000000E+00  0.00000000E+00
  0.00000000E+00  0.00000000E+00  0.00000000E+00
  0.00000000E+00  0.00000000E+00  0.00000000E+00
  0.00000000E+00  0.00000000E+00  0.00000000E+00
  0.00000000E+00  0.00000000E+00  0.00000000E+00
  0.00000000E+00  0.00000000E+00  0.00000000E+00
  0.00000000E+00  0.00000000E+00  0.00000000E+00
  0.00000000E+00  0.00000000E+00  0.00000000E+00
  0.00000000E+00  0.00000000E+00  0.00000000E+00
  0.00000000E+00  0.00000000E+00  0.00000000E+00
  0.00000000E+00  0.00000000E+00  0.00000000E+00
  0.00000000E+00  0.00000000E+00  0.00000000E+00
  0.00000000E+00  0.00000000E+00  0.00000000E+00
  0.00000000E+00  0.00000000E+00  0.00000000E+00
  0.00000000E+00  0.00000000E+00  0.00000000E+00
