Poscar file generated with pyiron       
   1.00000000000000     
     4.7840654490073247    0.0796473063032816    0.0935972478216577
    -0.1798637240659395   10.4496696918444201    0.4057017268838071
    -0.3389200485312378   -0.6801852408393722   17.7822647181803433
   Cs   I    Pb
     4    12     4
Direct
  0.6704007427840851  0.0145517491242951  0.3422021200313047
  0.1702169686477489  0.8487658447996952  0.6860615518821180
  0.6695283421016188  0.5162964795339063  0.1859951594608132
  0.1694820043544203  0.3505275474563091  0.8420681337393883
  0.6682138872752402  0.2741853735974408  0.0123970135817869
  0.1680632250061641  0.5955519811850771  0.0159313638950438
  0.6707424957753494  0.7692506325883984  0.5161954284842741
  0.1711737667354411  0.0909059641912998  0.5125660558193997
  0.1677524698551840 -0.0314311269358302  0.9009453366714284
  0.6681883221750581  0.9004589507202478  0.1271898707952194
  0.1711560533235560  0.4643030631085123  0.6274339199733689
  0.6708305661885910  0.3964661587979653  0.4010898041267062
  0.1697828815040915  0.2331783392817444  0.2288589381226452
  0.6697415864880498  0.6333703372846473  0.7999698490939501
  0.1701854889376467  0.7315179787761155  0.3001584465013732
  0.6701466457561562  0.1316099213389556  0.7291169963487983
  0.1681345313808637  0.0950846902488733  0.0750364172602596
  0.6676658893487422  0.7741916013421412  0.9531623478375265
  0.1707589527709896  0.5906521031182735  0.4534981695762957
  0.6712440719570438  0.2699288714806251  0.5751483655999980
 
  0.00000000E+00  0.00000000E+00  0.00000000E+00
  0.00000000E+00  0.00000000E+00  0.00000000E+00
  0.00000000E+00  0.00000000E+00  0.00000000E+00
  0.00000000E+00  0.00000000E+00  0.00000000E+00
  0.00000000E+00  0.00000000E+00  0.00000000E+00
  0.00000000E+00  0.00000000E+00  0.00000000E+00
  0.00000000E+00  0.00000000E+00  0.00000000E+00
  0.00000000E+00  0.00000000E+00  0.00000000E+00
  0.00000000E+00  0.00000000E+00  0.00000000E+00
  0.00000000E+00  0.00000000E+00  0.00000000E+00
  0.00000000E+00  0.00000000E+00  0.00000000E+00
  0.00000000E+00  0.00000000E+00  0.00000000E+00
  0.00000000E+00  0.00000000E+00  0.00000000E+00
  0.00000000E+00  0.00000000E+00  0.00000000E+00
  0.00000000E+00  0.00000000E+00  0.00000000E+00
  0.00000000E+00  0.00000000E+00  0.00000000E+00
  0.00000000E+00  0.00000000E+00  0.00000000E+00
  0.00000000E+00  0.00000000E+00  0.00000000E+00
  0.00000000E+00  0.00000000E+00  0.00000000E+00
  0.00000000E+00  0.00000000E+00  0.00000000E+00
