Poscar file generated with pyiron       
   1.00000000000000     
     4.7847966599031997    0.0063584749631845    0.0615587426810566
    -0.0233395206260373   10.4687161463655425    0.3533530558445584
    -0.2354335680604976   -0.5898289558973596   17.7998306737046263
   Cs   I    Pb
     4    12     4
Direct
  0.7393717646521949  0.0921377023316184  0.3533277044565269
  0.2391043746548184  0.9268576541145485  0.6971363992811893
  0.7401404749949643  0.5938456472973961  0.1974244335681998
  0.2402900154252039  0.4283159876056030  0.8534927941509470
  0.7414245771442385  0.3515802825591626  0.0238905576649277
  0.2422320135262953  0.6728008281868280  0.0272040412347186
  0.7386507098812359  0.8473604767462243  0.5270982930621040
  0.2377887029921365  0.1687852105327843  0.5237450697048315
  0.2422024162964915  0.0460338670554329  0.9125081007969778
  0.7407311181950688  0.9780147504262097  0.1384222751082445
  0.2389026138640908  0.5420676155956237  0.6384895170686355
  0.7388671722401167  0.4741197902153763  0.4123542205035478
  0.2403260799446187  0.3105420783959763  0.2401736711319774
  0.7393196238053741  0.7114111267536952  0.8111321468599180
  0.2399755337548726  0.8091200775072588  0.3113260719896510
  0.7400589939471512  0.2097671281126730  0.7404642182561870
  0.2407900142301099  0.1724858916307720  0.0863414858299364
  0.7425199695172271  0.8514678048609399  0.9645920978691810
  0.2391918024426039  0.6683725093145982  0.4646770439246239
  0.7385259189722825  0.3476396988637699  0.5864624230376890
 
  0.00000000E+00  0.00000000E+00  0.00000000E+00
  0.00000000E+00  0.00000000E+00  0.00000000E+00
  0.00000000E+00  0.00000000E+00  0.00000000E+00
  0.00000000E+00  0.00000000E+00  0.00000000E+00
  0.00000000E+00  0.00000000E+00  0.00000000E+00
  0.00000000E+00  0.00000000E+00  0.00000000E+00
  0.00000000E+00  0.00000000E+00  0.00000000E+00
  0.00000000E+00  0.00000000E+00  0.00000000E+00
  0.00000000E+00  0.00000000E+00  0.00000000E+00
  0.00000000E+00  0.00000000E+00  0.00000000E+00
  0.00000000E+00  0.00000000E+00  0.00000000E+00
  0.00000000E+00  0.00000000E+00  0.00000000E+00
  0.00000000E+00  0.00000000E+00  0.00000000E+00
  0.00000000E+00  0.00000000E+00  0.00000000E+00
  0.00000000E+00  0.00000000E+00  0.00000000E+00
  0.00000000E+00  0.00000000E+00  0.00000000E+00
  0.00000000E+00  0.00000000E+00  0.00000000E+00
  0.00000000E+00  0.00000000E+00  0.00000000E+00
  0.00000000E+00  0.00000000E+00  0.00000000E+00
  0.00000000E+00  0.00000000E+00  0.00000000E+00
