Poscar file generated with pyiron       
   1.00000000000000     
     4.7848259570187750    0.1104169934006151    0.1274394223995268
    -0.2388169707081651   10.4631974184735839    0.2673717108854947
    -0.4594921959295405   -0.4668757103504650   17.8053411826898014
   Cs   I    Pb
     4    12     4
Direct
  0.6864749172016051 -0.0342935618232159  0.3396624921455940
  0.1879270685453226  0.7999088605456884  0.6833198563013698
  0.6881773505284734  0.4675418099811268  0.1833815843790629
  0.1902780844028689  0.3023947654494721  0.8395797684870412
  0.6912212976367610  0.2256471503131386  0.0099364928577691
  0.1909170426900239  0.5473798041135493  0.0133915095773751
  0.6850198739546802  0.7203456966114443  0.5133888040079827
  0.1849918404312008  0.0420469871668324  0.5099314604601716
  0.1913223775038410  0.9203042137042012  0.8984220786197682
  0.6907198143026740  0.8519903080969093  0.1246789253132768
  0.1851224343406795  0.4156154838077959  0.6246967496312440
  0.6847811647716724  0.3474209941569688  0.3984580535633975
  0.1877387513895836  0.1844294342664088  0.2264503106252727
  0.6893361291023639  0.5851153902501740  0.7973868251300594
  0.1867895683164763  0.6826390699001332  0.2974116943915213
  0.6887541429157177  0.0831055166082647  0.7264725786692735
  0.1911971995543736  0.0465333823970524  0.0725738517477314
  0.6914014883796473  0.7261395551164387  0.9506663195602163
  0.1845410142364818  0.5416239584379444  0.4506652233282985
  0.6848715963066474  0.2210424767590137  0.5725860850495351
 
  0.00000000E+00  0.00000000E+00  0.00000000E+00
  0.00000000E+00  0.00000000E+00  0.00000000E+00
  0.00000000E+00  0.00000000E+00  0.00000000E+00
  0.00000000E+00  0.00000000E+00  0.00000000E+00
  0.00000000E+00  0.00000000E+00  0.00000000E+00
  0.00000000E+00  0.00000000E+00  0.00000000E+00
  0.00000000E+00  0.00000000E+00  0.00000000E+00
  0.00000000E+00  0.00000000E+00  0.00000000E+00
  0.00000000E+00  0.00000000E+00  0.00000000E+00
  0.00000000E+00  0.00000000E+00  0.00000000E+00
  0.00000000E+00  0.00000000E+00  0.00000000E+00
  0.00000000E+00  0.00000000E+00  0.00000000E+00
  0.00000000E+00  0.00000000E+00  0.00000000E+00
  0.00000000E+00  0.00000000E+00  0.00000000E+00
  0.00000000E+00  0.00000000E+00  0.00000000E+00
  0.00000000E+00  0.00000000E+00  0.00000000E+00
  0.00000000E+00  0.00000000E+00  0.00000000E+00
  0.00000000E+00  0.00000000E+00  0.00000000E+00
  0.00000000E+00  0.00000000E+00  0.00000000E+00
  0.00000000E+00  0.00000000E+00  0.00000000E+00
