Poscar file generated with pyiron       
   1.00000000000000     
     4.7774700094446700    0.0401408452147013    0.2795584915270017
    -0.0947678035599797   10.4757480017954840    0.1637383074213809
    -1.0377452768727873   -0.2882593324460977   17.7740242971964655
   Cs   I    Pb
     4    12     4
Direct
  0.5869779272338058  0.0099821130531074  0.3416761409485572
  0.0893377776226620  0.8490711975220716  0.6850749622735277
  0.5908215392653907  0.5101871742805159  0.1852516566515880
  0.0937927743228177  0.3487161154888211  0.8419986722417234
  0.5972885772465353  0.2679523144881977  0.0120575310060966
  0.0959965502817523  0.5904457945687138  0.0150614353188288
  0.5847999710496466  0.7685852586396763  0.5152541063384302
  0.0842327347646357  0.0909384265910925  0.5116280104733298
  0.0961635781640528  0.9639699179048182  0.9004901420660519
  0.5974822571562410  0.8944499267066923  0.1266196476063469
  0.0841763165022064  0.4639694583762867  0.6267575535851225
  0.5846231535577143  0.3951478984417893  0.4005590299014676
  0.0899992334439451  0.2275884206270763  0.2286763843418726
  0.5921021323859600  0.6313682147745506  0.7982710228929053
  0.0884137944090667  0.7274394041562988  0.2985725870435314
  0.5906844978416895  0.1313347220675355  0.7286525310934150
  0.0978929566641257  0.0889508041237596  0.0747794340505446
  0.5962691087809818  0.7694806133333005  0.9522597316225584
  0.0844131946489001  0.5894137320365659  0.4526233506152083
  0.5838582356636891  0.2696615714613746  0.5746866668876912
 
  0.00000000E+00  0.00000000E+00  0.00000000E+00
  0.00000000E+00  0.00000000E+00  0.00000000E+00
  0.00000000E+00  0.00000000E+00  0.00000000E+00
  0.00000000E+00  0.00000000E+00  0.00000000E+00
  0.00000000E+00  0.00000000E+00  0.00000000E+00
  0.00000000E+00  0.00000000E+00  0.00000000E+00
  0.00000000E+00  0.00000000E+00  0.00000000E+00
  0.00000000E+00  0.00000000E+00  0.00000000E+00
  0.00000000E+00  0.00000000E+00  0.00000000E+00
  0.00000000E+00  0.00000000E+00  0.00000000E+00
  0.00000000E+00  0.00000000E+00  0.00000000E+00
  0.00000000E+00  0.00000000E+00  0.00000000E+00
  0.00000000E+00  0.00000000E+00  0.00000000E+00
  0.00000000E+00  0.00000000E+00  0.00000000E+00
  0.00000000E+00  0.00000000E+00  0.00000000E+00
  0.00000000E+00  0.00000000E+00  0.00000000E+00
  0.00000000E+00  0.00000000E+00  0.00000000E+00
  0.00000000E+00  0.00000000E+00  0.00000000E+00
  0.00000000E+00  0.00000000E+00  0.00000000E+00
  0.00000000E+00  0.00000000E+00  0.00000000E+00
