Poscar file generated with pyiron       
   1.00000000000000     
     4.7757321977858442    0.0057050553734181    0.2989126980899869
    -0.0204554192734852   10.4689215457566860    0.2056347112848185
    -1.1204589108364262   -0.3374542643599668   17.7731378635239459
   Cs   I    Pb
     4    12     4
Direct
  0.6078034648618255  0.0162214237893043  0.3390655705769968
  0.1074483140315069  0.8536671946565171  0.6824143749777731
  0.6092767694110949  0.5164241252880098  0.1823864300522414
  0.1086504149927566  0.3540075807645013  0.8389947121634450
  0.6117442836999024  0.2744891831805683  0.0092483653954525
  0.1114604752800792  0.5967455819210601  0.0122212461515472
  0.6050016072564876  0.7735423861423283  0.5123052773662250
  0.1051198362103859  0.0957738351213009  0.5091813179631173
  0.1120182569824361  0.9702613033861869  0.8976182599637762
  0.6118130787319638  0.9010914327620926  0.1237246978278375
  0.1047742828240106  0.4693846629225661  0.6237852968339063
  0.6049575150732371  0.4000894308334125  0.3977128293547378
  0.1092867974878799  0.2335404832064292  0.2256548407941022
  0.6080670974540509  0.6370227177734624  0.7958807842401437
  0.1085870557549161  0.7333203553722674  0.2958974650205283
  0.6075322559786179  0.1364838859640667  0.7257122577423372
  0.1121280410892145  0.0952084005816840  0.0719472958992954
  0.6119697523374817  0.7757304043536920  0.9494785372047420
  0.1046799992302951  0.5945454561939311  0.4496948788262980
  0.6047855811663345  0.2747826405660521  0.5717581600244607
 
  0.00000000E+00  0.00000000E+00  0.00000000E+00
  0.00000000E+00  0.00000000E+00  0.00000000E+00
  0.00000000E+00  0.00000000E+00  0.00000000E+00
  0.00000000E+00  0.00000000E+00  0.00000000E+00
  0.00000000E+00  0.00000000E+00  0.00000000E+00
  0.00000000E+00  0.00000000E+00  0.00000000E+00
  0.00000000E+00  0.00000000E+00  0.00000000E+00
  0.00000000E+00  0.00000000E+00  0.00000000E+00
  0.00000000E+00  0.00000000E+00  0.00000000E+00
  0.00000000E+00  0.00000000E+00  0.00000000E+00
  0.00000000E+00  0.00000000E+00  0.00000000E+00
  0.00000000E+00  0.00000000E+00  0.00000000E+00
  0.00000000E+00  0.00000000E+00  0.00000000E+00
  0.00000000E+00  0.00000000E+00  0.00000000E+00
  0.00000000E+00  0.00000000E+00  0.00000000E+00
  0.00000000E+00  0.00000000E+00  0.00000000E+00
  0.00000000E+00  0.00000000E+00  0.00000000E+00
  0.00000000E+00  0.00000000E+00  0.00000000E+00
  0.00000000E+00  0.00000000E+00  0.00000000E+00
  0.00000000E+00  0.00000000E+00  0.00000000E+00
