Poscar file generated with pyiron       
   1.00000000000000     
     4.7830647170715030    0.0636894902345141    0.0932685755798402
    -0.1362510153645680   10.4636312752302647    0.1184481755315672
    -0.3447841505970387   -0.1964815493166886   17.7910756685869309
   Cs   I    Pb
     4    12     4
Direct
  0.7130319297112094 -0.0220592843422692  0.3346079094069561
  0.2135950251618060  0.8150428252548692  0.6780632167823673
  0.7145826410349886  0.4779888596816925  0.1779452379481414
  0.2152922135675162  0.3150980088073452  0.8347827710061586
  0.7170368585454291  0.2355318213635747  0.0048176176049813
  0.2170037893130884  0.5578092319770052  0.0080272559634401
  0.7107800982386937  0.7353816347722026  0.5079022213317272
  0.2105705050336733  0.0576774015341222  0.5046757492155133
  0.2167620320862368  0.9311858387672096  0.8932648358440666
  0.7169524749596645  0.8621810219805398  0.1194966598752353
  0.2105425680082613  0.4311063414252753  0.6194653842024725
  0.7104837915092824  0.3621694673868620  0.3932686453009012
  0.2141141012908685  0.1953253527335435  0.2212733840412452
  0.7148511672502130  0.5979387877091153  0.7915276715695835
  0.2133133452023641  0.6951826356738543  0.2913886894212460
  0.7140316725542496  0.0980536804097036  0.7212688466154606
  0.2171009343054636  0.0565312021675586  0.0674812162973904
  0.7171628798580215  0.7367960024244690  0.9453150460386570
  0.2101961046603894  0.5564874214908968  0.4452745028197831
  0.7105513610084107  0.2367115774689874  0.5673677272005581
 
  0.00000000E+00  0.00000000E+00  0.00000000E+00
  0.00000000E+00  0.00000000E+00  0.00000000E+00
  0.00000000E+00  0.00000000E+00  0.00000000E+00
  0.00000000E+00  0.00000000E+00  0.00000000E+00
  0.00000000E+00  0.00000000E+00  0.00000000E+00
  0.00000000E+00  0.00000000E+00  0.00000000E+00
  0.00000000E+00  0.00000000E+00  0.00000000E+00
  0.00000000E+00  0.00000000E+00  0.00000000E+00
  0.00000000E+00  0.00000000E+00  0.00000000E+00
  0.00000000E+00  0.00000000E+00  0.00000000E+00
  0.00000000E+00  0.00000000E+00  0.00000000E+00
  0.00000000E+00  0.00000000E+00  0.00000000E+00
  0.00000000E+00  0.00000000E+00  0.00000000E+00
  0.00000000E+00  0.00000000E+00  0.00000000E+00
  0.00000000E+00  0.00000000E+00  0.00000000E+00
  0.00000000E+00  0.00000000E+00  0.00000000E+00
  0.00000000E+00  0.00000000E+00  0.00000000E+00
  0.00000000E+00  0.00000000E+00  0.00000000E+00
  0.00000000E+00  0.00000000E+00  0.00000000E+00
  0.00000000E+00  0.00000000E+00  0.00000000E+00
