Poscar file generated with pyiron       
   1.00000000000000     
     4.7755474249375487    0.0412886098798753    0.2893405681209226
    -0.1079620206520215   10.4615220083966971    0.2441501618421793
    -1.0830699852691912   -0.4320031548801045   17.7705207908915561
   Cs   I    Pb
     4    12     4
Direct
  0.6363609838451838 -0.0010016111682076  0.3453413127351389
  0.1360638630811902  0.8357151850100644  0.6887220144845415
  0.6389895155190770  0.4993919743085862  0.1883513268584700
  0.1371635690534549  0.3356464792796268  0.8449593092922506
  0.6408593590799652  0.2566258503412233  0.0151970970035701
  0.1406211875454696  0.5789488005242927  0.0179800761847065
  0.6350668038779802  0.7559990339369411  0.5189133649069023
  0.1350626005420696  0.0781838945260564  0.5152674870697335
  0.1407834635589309  0.9523959727381422  0.9035831089172558
  0.6412305335991586  0.8830262860220774  0.1296874716785618
  0.1350881921809513  0.4513425273371859  0.6300086674226365
  0.6350459416103693  0.3831762657135999  0.4037999617744394
  0.1379520572184773  0.2161823593553923  0.2316722195432141
  0.6369848074700223  0.6184609710750394  0.8017364373061364
  0.1371708040847610  0.7161776348641146  0.3022317059819545
  0.6362073469745209  0.1183703509343716  0.7316351808478930
  0.1415775329971995  0.0776734158105334  0.0778926452054474
  0.6409150048088503  0.7579013193966413  0.9553296990294983
  0.1348083898075828  0.5773107233476377  0.4559735189302393
  0.6349499442248226  0.2572507170046254  0.5779050802615645
 
  0.00000000E+00  0.00000000E+00  0.00000000E+00
  0.00000000E+00  0.00000000E+00  0.00000000E+00
  0.00000000E+00  0.00000000E+00  0.00000000E+00
  0.00000000E+00  0.00000000E+00  0.00000000E+00
  0.00000000E+00  0.00000000E+00  0.00000000E+00
  0.00000000E+00  0.00000000E+00  0.00000000E+00
  0.00000000E+00  0.00000000E+00  0.00000000E+00
  0.00000000E+00  0.00000000E+00  0.00000000E+00
  0.00000000E+00  0.00000000E+00  0.00000000E+00
  0.00000000E+00  0.00000000E+00  0.00000000E+00
  0.00000000E+00  0.00000000E+00  0.00000000E+00
  0.00000000E+00  0.00000000E+00  0.00000000E+00
  0.00000000E+00  0.00000000E+00  0.00000000E+00
  0.00000000E+00  0.00000000E+00  0.00000000E+00
  0.00000000E+00  0.00000000E+00  0.00000000E+00
  0.00000000E+00  0.00000000E+00  0.00000000E+00
  0.00000000E+00  0.00000000E+00  0.00000000E+00
  0.00000000E+00  0.00000000E+00  0.00000000E+00
  0.00000000E+00  0.00000000E+00  0.00000000E+00
  0.00000000E+00  0.00000000E+00  0.00000000E+00
