Poscar file generated with pyiron       
   1.00000000000000     
     4.7841925656873991    0.0830478398194092    0.1592501150270301
    -0.1994546236008729   10.4702677858754427    0.2392091140049130
    -0.5709226396934337   -0.4070467922635357   17.8116900113922298
   Cs   I    Pb
     4    12     4
Direct
  0.7234025836530528  0.9918184999566209  0.3424393423532446
  0.2231563514339238  0.8296179218813057  0.6861033232993202
  0.7266831691426157  0.4924628730902449  0.1856875722442465
  0.2279785367600483  0.3296101122804169  0.8424334995620922
  0.7310485969353439  0.2499578191688725  0.0124367441277535
  0.2309128589676763  0.5720307682106047  0.0153844664269719
  0.7190022796859818  0.7493139015493621  0.5164158918819178
  0.2202430388765087  0.0709257040743239  0.5124962113970080
  0.2310068270725538 -0.0541358632062161  0.9008382526749404
  0.7309260301636299  0.8760830075143884  0.1271531711225467
  0.2205991102517088  0.4442519772351233  0.6275921377423765
  0.7185542607584250  0.3762335987198908  0.4012886622790117
  0.2254995620699992  0.2095680773682214  0.2291103600541476
  0.7267510847595368  0.6122957780189701  0.7988965185628579
  0.2239242928510480  0.7089182483970040  0.2997298285038356
  0.7247439851701323  0.1120083229799075  0.7294449214106417
  0.2311479150157189  0.0706133729014948  0.0752140126571366
  0.7315284391006290  0.7513111824355559  0.9525405066686767
  0.2182870156556830  0.5702262605841881  0.4535171699226724
  0.7200097342279339  0.2501233773046852  0.5752589124475741
 
  0.00000000E+00  0.00000000E+00  0.00000000E+00
  0.00000000E+00  0.00000000E+00  0.00000000E+00
  0.00000000E+00  0.00000000E+00  0.00000000E+00
  0.00000000E+00  0.00000000E+00  0.00000000E+00
  0.00000000E+00  0.00000000E+00  0.00000000E+00
  0.00000000E+00  0.00000000E+00  0.00000000E+00
  0.00000000E+00  0.00000000E+00  0.00000000E+00
  0.00000000E+00  0.00000000E+00  0.00000000E+00
  0.00000000E+00  0.00000000E+00  0.00000000E+00
  0.00000000E+00  0.00000000E+00  0.00000000E+00
  0.00000000E+00  0.00000000E+00  0.00000000E+00
  0.00000000E+00  0.00000000E+00  0.00000000E+00
  0.00000000E+00  0.00000000E+00  0.00000000E+00
  0.00000000E+00  0.00000000E+00  0.00000000E+00
  0.00000000E+00  0.00000000E+00  0.00000000E+00
  0.00000000E+00  0.00000000E+00  0.00000000E+00
  0.00000000E+00  0.00000000E+00  0.00000000E+00
  0.00000000E+00  0.00000000E+00  0.00000000E+00
  0.00000000E+00  0.00000000E+00  0.00000000E+00
  0.00000000E+00  0.00000000E+00  0.00000000E+00
