Poscar file generated with pyiron       
   1.00000000000000     
     4.7873208528928668    0.0107752699526472    0.0739641284890474
    -0.0269880454301705   10.4679881630823886    0.3701040276654224
    -0.2779494534921642   -0.6341706933608656   17.7976355991047122
   Cs   I    Pb
     4    12     4
Direct
  0.6750767049520430  0.0338303711304411  0.3601483893408808
  0.1757880523241897  0.8709320954301375  0.7035440194505630
  0.6731975886248497  0.5337898728540457  0.2034341886049018
  0.1740907843681221  0.3709015446754984  0.8601533274790917
  0.6715690789669827  0.2912692986940882  0.0302981221098764
  0.1713475149922867  0.6134937699935141  0.0333238547474113
  0.6777831677743211  0.7912306478996748  0.5334619685347268
  0.1778041021864076  0.1133491060418160  0.5302745816222977
  0.1712969966584006  0.9869820556220116  0.9186709447447045
  0.6714414311240123  0.9177291497287270  0.1449474904065892
  0.1779143007696821  0.4869268647796888  0.6448431794004933
  0.6778447666209177  0.4178132818805628  0.4186430694266267
  0.1735541653108580  0.2509385756969263  0.2466612780691424
  0.6746425008987057  0.6537943145265032  0.8168831044601466
  0.1743620759876836  0.7509777812571018  0.3168975131788700
  0.6755244932540755  0.1537961079274143  0.7466393792568718
  0.1713310221875311  0.1121039705598680  0.0929334959372704
  0.6710876734711361  0.7925393555973009  0.9706203912469675
  0.1779835796041006  0.6122971745676350  0.4706918069502661
  0.6779643122995490  0.2925022505129913  0.5928453303114620
 
  0.00000000E+00  0.00000000E+00  0.00000000E+00
  0.00000000E+00  0.00000000E+00  0.00000000E+00
  0.00000000E+00  0.00000000E+00  0.00000000E+00
  0.00000000E+00  0.00000000E+00  0.00000000E+00
  0.00000000E+00  0.00000000E+00  0.00000000E+00
  0.00000000E+00  0.00000000E+00  0.00000000E+00
  0.00000000E+00  0.00000000E+00  0.00000000E+00
  0.00000000E+00  0.00000000E+00  0.00000000E+00
  0.00000000E+00  0.00000000E+00  0.00000000E+00
  0.00000000E+00  0.00000000E+00  0.00000000E+00
  0.00000000E+00  0.00000000E+00  0.00000000E+00
  0.00000000E+00  0.00000000E+00  0.00000000E+00
  0.00000000E+00  0.00000000E+00  0.00000000E+00
  0.00000000E+00  0.00000000E+00  0.00000000E+00
  0.00000000E+00  0.00000000E+00  0.00000000E+00
  0.00000000E+00  0.00000000E+00  0.00000000E+00
  0.00000000E+00  0.00000000E+00  0.00000000E+00
  0.00000000E+00  0.00000000E+00  0.00000000E+00
  0.00000000E+00  0.00000000E+00  0.00000000E+00
  0.00000000E+00  0.00000000E+00  0.00000000E+00
