Poscar file generated with pyiron       
   1.00000000000000     
     4.7870764056831643    0.0651754900742584    0.1060984243240970
    -0.1494670362784306   10.4708016495212473    0.1061419570024061
    -0.3923989551965883   -0.1869133200335920   17.8154194904804548
   Cs   I    Pb
     4    12     4
Direct
  0.6913551535169452  0.9798696319485412  0.3352223718929619
  0.1944764823141147  0.8154744686003883  0.6789040267673034
  0.6927146983695790  0.4810332770952621  0.1788319135129635
  0.1957128754954705  0.3166034848830527  0.8352087280853905
  0.6962029123453060  0.2385202977780249  0.0055191292768335
  0.1960109040763791  0.5604073290425063  0.0088094893318074
  0.6915585129309387  0.7357936853483359  0.5088290138369000
  0.1910981491092453  0.0575608304953107  0.5055611666661666
  0.1962570294094370  0.9334282310781418  0.8940879364841989
  0.6961297046110300  0.8651683715089536  0.1202034305115107
  0.1912296428349081  0.4310890646698084  0.6201193568683335
  0.6912458833451913  0.3627826464423978  0.3941067955107218
  0.1928064197822894  0.1980103076231334  0.2220303972843208
  0.6948648520774388  0.5995017247152613  0.7925457341792408
  0.1921493284096089  0.6970463982418906  0.2925878232933934
  0.6944099029356885  0.0983392084299471  0.7220510322550160
  0.1962347413177991  0.0596262133701422  0.0682060755741329
  0.6964157856158157  0.7392439926867378  0.9461258871998258
  0.1913530423419252  0.5571086467724985  0.4460641963389232
  0.6911526115362892  0.2365542194489839  0.5682124328059390
 
  0.00000000E+00  0.00000000E+00  0.00000000E+00
  0.00000000E+00  0.00000000E+00  0.00000000E+00
  0.00000000E+00  0.00000000E+00  0.00000000E+00
  0.00000000E+00  0.00000000E+00  0.00000000E+00
  0.00000000E+00  0.00000000E+00  0.00000000E+00
  0.00000000E+00  0.00000000E+00  0.00000000E+00
  0.00000000E+00  0.00000000E+00  0.00000000E+00
  0.00000000E+00  0.00000000E+00  0.00000000E+00
  0.00000000E+00  0.00000000E+00  0.00000000E+00
  0.00000000E+00  0.00000000E+00  0.00000000E+00
  0.00000000E+00  0.00000000E+00  0.00000000E+00
  0.00000000E+00  0.00000000E+00  0.00000000E+00
  0.00000000E+00  0.00000000E+00  0.00000000E+00
  0.00000000E+00  0.00000000E+00  0.00000000E+00
  0.00000000E+00  0.00000000E+00  0.00000000E+00
  0.00000000E+00  0.00000000E+00  0.00000000E+00
  0.00000000E+00  0.00000000E+00  0.00000000E+00
  0.00000000E+00  0.00000000E+00  0.00000000E+00
  0.00000000E+00  0.00000000E+00  0.00000000E+00
  0.00000000E+00  0.00000000E+00  0.00000000E+00
