Poscar file generated with pyiron       
   1.00000000000000     
     4.7859262640741997   -0.0019293765903386    0.1833129049681143
    -0.0046710702594933   10.4666527216022640    0.2849296100036521
    -0.6834266526683672   -0.4902589149807318   17.7771004753046284
   Cs   I    Pb
     4    12     4
Direct
  0.7311886580848720  0.1058697844264866  0.3456140066485286
  0.2302676776718734  0.9442986383968033  0.6890090672023863
  0.7331407967534579  0.6061179153446631  0.1889797813475702
  0.2317379379110145  0.4444340552121873  0.8458152186388925
  0.7340467097712662  0.3643798765866169  0.0158845708770133
  0.2340571557476285  0.6870270072218067  0.0188406953820031
  0.7285013040606358  0.8633427267721868  0.5189253159086721
  0.2288227028329066  0.1859089167972266  0.5158603323688743
  0.2338180145514368  0.0603483860646014  0.9043319210190479
  0.7344191614292825  0.9911365181005687  0.1306043383079653
  0.2284374047736131  0.5592911369059129  0.6304936128611314
  0.7286122515920515  0.4899501321460546  0.4042851404475020
  0.2323880118543648  0.3233723871338230  0.2326027083300108
  0.7308685671970533  0.7272318898841964  0.8024846868439127
  0.2315595867899259  0.8230810375061333  0.3024395042193149
  0.7304737112402656  0.2269061357970013  0.7326163076272635
  0.2345800758234320  0.1854286901329774  0.0786121440672717
  0.7341740005878482  0.8661036749852183  0.9561507400700224
  0.2284400696336072  0.6842585962297276  0.4563064405933498
  0.7282652140622689  0.3649222872245879  0.5786293018728100
 
  0.00000000E+00  0.00000000E+00  0.00000000E+00
  0.00000000E+00  0.00000000E+00  0.00000000E+00
  0.00000000E+00  0.00000000E+00  0.00000000E+00
  0.00000000E+00  0.00000000E+00  0.00000000E+00
  0.00000000E+00  0.00000000E+00  0.00000000E+00
  0.00000000E+00  0.00000000E+00  0.00000000E+00
  0.00000000E+00  0.00000000E+00  0.00000000E+00
  0.00000000E+00  0.00000000E+00  0.00000000E+00
  0.00000000E+00  0.00000000E+00  0.00000000E+00
  0.00000000E+00  0.00000000E+00  0.00000000E+00
  0.00000000E+00  0.00000000E+00  0.00000000E+00
  0.00000000E+00  0.00000000E+00  0.00000000E+00
  0.00000000E+00  0.00000000E+00  0.00000000E+00
  0.00000000E+00  0.00000000E+00  0.00000000E+00
  0.00000000E+00  0.00000000E+00  0.00000000E+00
  0.00000000E+00  0.00000000E+00  0.00000000E+00
  0.00000000E+00  0.00000000E+00  0.00000000E+00
  0.00000000E+00  0.00000000E+00  0.00000000E+00
  0.00000000E+00  0.00000000E+00  0.00000000E+00
  0.00000000E+00  0.00000000E+00  0.00000000E+00
