Poscar file generated with pyiron       
   1.00000000000000     
     4.7859499288202025    0.0610071456504752    0.1430709201428613
    -0.1459685539716820   10.4529318926287775    0.4190101181255598
    -0.5265585349959201   -0.7229665574692705   17.7884960013290225
   Cs   I    Pb
     4    12     4
Direct
  0.6654446994090831  0.0145476843013603  0.3466987227367990
  0.1686083596368830  0.8476242103160191  0.6907916631317942
  0.6652005447216001  0.5160131300505509  0.1906125347352202
  0.1695344631685409  0.3484691409352390  0.8469489050553105
  0.6681008679149993  0.2722331704790001  0.0172913263927353
  0.1676122392744581  0.5937261389724409  0.0203559180831262
  0.6655744669328195  0.7689663111941480  0.5208363510648546
  0.1666660889634589  0.0900170885426178  0.5170001319546814
  0.1678376539190843 -0.0330890219164263  0.9055458303545878
  0.6675767886431698  0.8985726853428553  0.1317648085353386
  0.1668843285083731  0.4634704667264343  0.6317953418220210
  0.6648617915246128  0.3963284996608606  0.4055645330914114
  0.1656946151149129  0.2326085533998737  0.2332494660502041
  0.6693205601762143  0.6314758437541332  0.8044565669570871
  0.1652564874614131  0.7315921474277459  0.3048933753981158
  0.6694714180238260  0.1307998914472778  0.7332887459095693
  0.1678325268623365  0.0932569560037308  0.0797640793447497
  0.6678592610341100  0.7724633394514535  0.9576561433358711
  0.1648721364336067  0.5904314577732503  0.4580260919758284
  0.6669152307049708  0.2692479713218832  0.5795039759733643
 
  0.00000000E+00  0.00000000E+00  0.00000000E+00
  0.00000000E+00  0.00000000E+00  0.00000000E+00
  0.00000000E+00  0.00000000E+00  0.00000000E+00
  0.00000000E+00  0.00000000E+00  0.00000000E+00
  0.00000000E+00  0.00000000E+00  0.00000000E+00
  0.00000000E+00  0.00000000E+00  0.00000000E+00
  0.00000000E+00  0.00000000E+00  0.00000000E+00
  0.00000000E+00  0.00000000E+00  0.00000000E+00
  0.00000000E+00  0.00000000E+00  0.00000000E+00
  0.00000000E+00  0.00000000E+00  0.00000000E+00
  0.00000000E+00  0.00000000E+00  0.00000000E+00
  0.00000000E+00  0.00000000E+00  0.00000000E+00
  0.00000000E+00  0.00000000E+00  0.00000000E+00
  0.00000000E+00  0.00000000E+00  0.00000000E+00
  0.00000000E+00  0.00000000E+00  0.00000000E+00
  0.00000000E+00  0.00000000E+00  0.00000000E+00
  0.00000000E+00  0.00000000E+00  0.00000000E+00
  0.00000000E+00  0.00000000E+00  0.00000000E+00
  0.00000000E+00  0.00000000E+00  0.00000000E+00
  0.00000000E+00  0.00000000E+00  0.00000000E+00
