Poscar file generated with pyiron       
   1.00000000000000     
     4.7863775425913868   -0.0111067908696200    0.1364180224414972
     0.0193230851920659   10.4704580408230559    0.3478443632505426
    -0.5077415795351259   -0.5941085831965113   17.7970046892884355
   Cs   I    Pb
     4    12     4
Direct
  0.6580651014145636  0.0335613234280781  0.3614757237168827
  0.1539784537555832  0.8710834287388158  0.7050918784841012
  0.6529508112702724  0.5342796652927778  0.2047885433050104
  0.1489699254180276  0.3709213613760879  0.8616755991295264
  0.6455818989413616  0.2915194901287461  0.0316360875065112
  0.1454808687402422  0.6142179709624274  0.0348665575686413
  0.6596534101941989  0.7911482790979038  0.5350915956055332
  0.1591731595274894  0.1136856214307159  0.5314635545402963
  0.1450629198331043  0.9872650064531204  0.9201367250852925
  0.6455104123423641  0.9184051525834652  0.1463342302972243
  0.1587853645623901  0.4866903484082436  0.6464948921739779
  0.6601926290854241  0.4180866674086307  0.4201412742806853
  0.1548878018599453  0.2514688239079026  0.2482227620706143
  0.6508270665468633  0.6535899193162739  0.8184518510928469
  0.1561822894552840  0.7508225764196750  0.3184568842497832
  0.6522518558046874  0.1538009937729899  0.7481194012053892
  0.1454466284453742  0.1127210796342839  0.0944459324637761
  0.6447126129564447  0.7929236230177199  0.9720398560888932
  0.1602261073313454  0.6122254783278752  0.4723209078078781
  0.6588553109881414  0.2925096947376286  0.5943528873963060
 
  0.00000000E+00  0.00000000E+00  0.00000000E+00
  0.00000000E+00  0.00000000E+00  0.00000000E+00
  0.00000000E+00  0.00000000E+00  0.00000000E+00
  0.00000000E+00  0.00000000E+00  0.00000000E+00
  0.00000000E+00  0.00000000E+00  0.00000000E+00
  0.00000000E+00  0.00000000E+00  0.00000000E+00
  0.00000000E+00  0.00000000E+00  0.00000000E+00
  0.00000000E+00  0.00000000E+00  0.00000000E+00
  0.00000000E+00  0.00000000E+00  0.00000000E+00
  0.00000000E+00  0.00000000E+00  0.00000000E+00
  0.00000000E+00  0.00000000E+00  0.00000000E+00
  0.00000000E+00  0.00000000E+00  0.00000000E+00
  0.00000000E+00  0.00000000E+00  0.00000000E+00
  0.00000000E+00  0.00000000E+00  0.00000000E+00
  0.00000000E+00  0.00000000E+00  0.00000000E+00
  0.00000000E+00  0.00000000E+00  0.00000000E+00
  0.00000000E+00  0.00000000E+00  0.00000000E+00
  0.00000000E+00  0.00000000E+00  0.00000000E+00
  0.00000000E+00  0.00000000E+00  0.00000000E+00
  0.00000000E+00  0.00000000E+00  0.00000000E+00
