Poscar file generated with pyiron       
   1.00000000000000     
     4.7873547483902863    0.0374168769568326    0.1069992037673500
    -0.0911714256201035   10.4674281812437826    0.0835160288361470
    -0.4073801206410155   -0.1559576538086376   17.8078629403180599
   Cs   I    Pb
     4    12     4
Direct
  0.7520229035100420  0.1174432347972824  0.3356164412248122
  0.2530104586667395  0.9505716488759013  0.6795586304944421
  0.7483357048697563  0.6173071595880105  0.1797472754890474
  0.2532813839517237  0.4493852667756555  0.8354929056850255
  0.7500179380793681  0.3730362370895347  0.0054919628106114
  0.2498300534031092  0.6937289255888119  0.0094066776479740
  0.7551777790242679  0.8736776733994686  0.5096910320547385
  0.2556509069795573  0.1950241934885895  0.5057955853436881
  0.2502307288779886  0.0667405630760481  0.8943284880860526
  0.7493771373454398 -0.0000876352492716  0.1204678366761128
  0.2571114867729086  0.5682093074985757  0.6208630629098546
  0.7539489798463591  0.5006652166393909  0.3942247935657573
  0.2494065450502671  0.3340132048629009  0.2217843759025767
  0.7531418454666060  0.7325356798411082  0.7929226354973262
  0.2501838920869863  0.8343968449800291  0.2933506251891926
  0.7543357716272804  0.2337131975158131  0.7214828259949494
  0.2495006354562920  0.1942115068457475  0.0681668082175707
  0.7504566599160607  0.8721023832074154  0.9465018258893124
  0.2546988175841998  0.6948588457606891  0.4468559271897646
  0.7564969261230495  0.3741317597198952  0.5682601039213827
 
  0.00000000E+00  0.00000000E+00  0.00000000E+00
  0.00000000E+00  0.00000000E+00  0.00000000E+00
  0.00000000E+00  0.00000000E+00  0.00000000E+00
  0.00000000E+00  0.00000000E+00  0.00000000E+00
  0.00000000E+00  0.00000000E+00  0.00000000E+00
  0.00000000E+00  0.00000000E+00  0.00000000E+00
  0.00000000E+00  0.00000000E+00  0.00000000E+00
  0.00000000E+00  0.00000000E+00  0.00000000E+00
  0.00000000E+00  0.00000000E+00  0.00000000E+00
  0.00000000E+00  0.00000000E+00  0.00000000E+00
  0.00000000E+00  0.00000000E+00  0.00000000E+00
  0.00000000E+00  0.00000000E+00  0.00000000E+00
  0.00000000E+00  0.00000000E+00  0.00000000E+00
  0.00000000E+00  0.00000000E+00  0.00000000E+00
  0.00000000E+00  0.00000000E+00  0.00000000E+00
  0.00000000E+00  0.00000000E+00  0.00000000E+00
  0.00000000E+00  0.00000000E+00  0.00000000E+00
  0.00000000E+00  0.00000000E+00  0.00000000E+00
  0.00000000E+00  0.00000000E+00  0.00000000E+00
  0.00000000E+00  0.00000000E+00  0.00000000E+00
