Poscar file generated with pyiron       
   1.00000000000000     
     4.7796598466982179    0.0333345243955622   -0.1584900678207583
    -0.0587163392325886   10.4669545657470504    0.2101665652245861
     0.5918661833635285   -0.3526647374260650   17.7935241687874068
   Cs   I    Pb
     4    12     4
Direct
  0.6684263722295517  0.0407739846763489  0.3554612799847096
  0.1680188949863383  0.8797637813063151  0.6986946978225481
  0.6640831922440731  0.5414193925562257  0.1988088308493103
  0.1635048241926993  0.3802989690946824  0.8555630431009094
  0.6605628088174517  0.2998821818064075  0.0256639890086837
  0.1605973942393521  0.6222603392644017  0.0285524566453108
  0.6715765501653559  0.7979281997969930  0.5286535389567285
  0.1711195009426070  0.1204988804396222  0.5257411366679789
  0.1605090420362012 -0.0041282521874931  0.9140940297869872
  0.6605017221268769  0.9261032245167905  0.1401093959410371
  0.1709443891844988  0.4942370036292149  0.6401934022922201
  0.6718190344235776  0.4244299880275161  0.4140938768890272
  0.1659126601089784  0.2586218672073883  0.2422551213875981
  0.6653641020833302  0.6628187741130037  0.8119937690597486
  0.1663011645324008  0.7580052350705326  0.3123606200055334
  0.6661425522636879  0.1623901345314985  0.7424574040388058
  0.1604149945066564  0.1207276797316083  0.0883063424615324
  0.6602431692292088  0.8013345777306785  0.9658547182156687
  0.1718526999870286  0.6189269027935774  0.4660212543112321
  0.6710487652328760  0.2997792975711117  0.5883696678753575
 
  0.00000000E+00  0.00000000E+00  0.00000000E+00
  0.00000000E+00  0.00000000E+00  0.00000000E+00
  0.00000000E+00  0.00000000E+00  0.00000000E+00
  0.00000000E+00  0.00000000E+00  0.00000000E+00
  0.00000000E+00  0.00000000E+00  0.00000000E+00
  0.00000000E+00  0.00000000E+00  0.00000000E+00
  0.00000000E+00  0.00000000E+00  0.00000000E+00
  0.00000000E+00  0.00000000E+00  0.00000000E+00
  0.00000000E+00  0.00000000E+00  0.00000000E+00
  0.00000000E+00  0.00000000E+00  0.00000000E+00
  0.00000000E+00  0.00000000E+00  0.00000000E+00
  0.00000000E+00  0.00000000E+00  0.00000000E+00
  0.00000000E+00  0.00000000E+00  0.00000000E+00
  0.00000000E+00  0.00000000E+00  0.00000000E+00
  0.00000000E+00  0.00000000E+00  0.00000000E+00
  0.00000000E+00  0.00000000E+00  0.00000000E+00
  0.00000000E+00  0.00000000E+00  0.00000000E+00
  0.00000000E+00  0.00000000E+00  0.00000000E+00
  0.00000000E+00  0.00000000E+00  0.00000000E+00
  0.00000000E+00  0.00000000E+00  0.00000000E+00
