Poscar file generated with pyiron       
   1.00000000000000     
     4.7748692124975918    0.0812159523940080    0.2701333946853294
    -0.2001485537509446   10.4740462632302460    0.2649692971592892
    -0.9933635209162435   -0.4693865654478792   17.7746554106056820
   Cs   I    Pb
     4    12     4
Direct
  0.6566666089939572  0.0051439055291975  0.3490545090763844
  0.1565487073683622  0.8444234449441036  0.6924494744017874
  0.6589948976070324  0.5054880750562208  0.1923730087145437
  0.1592047075055313  0.3442083232808785  0.8492451598946404
  0.6622935916532896  0.2635311563459554  0.0193707002868753
  0.1620028044757550  0.5861251062985349  0.0221758309304409
  0.6537737268871383  0.7633336103204360  0.5223489854963795
  0.1545344607107369  0.0859305712374473  0.5189910217230047
  0.1624966124890452  0.9595839432619218  0.9077569234596743
  0.6626122935329879  0.8898434727426192  0.1338031957826609
  0.1540587925371451  0.4593880270704337  0.6338391721605797
  0.6546222473179728  0.3903003682488313  0.4078258466004513
  0.1581682648818727  0.2227724402440674  0.2359377348174388
  0.6580070412045891  0.6269220756902756  0.8054879635899778
  0.1571938286146511  0.7224722379600432  0.3058318316803273
  0.6573605502214368  0.1269625494277720  0.7358954758478512
  0.1628927337441581  0.0845003674799665  0.0820265677130218
  0.6625483058631014  0.7651492706727012  0.9594287747918614
  0.1543143453249033  0.5844413304866503  0.4598706306200701
  0.6538451616509866  0.2649794417827959  0.5818689336937422
 
  0.00000000E+00  0.00000000E+00  0.00000000E+00
  0.00000000E+00  0.00000000E+00  0.00000000E+00
  0.00000000E+00  0.00000000E+00  0.00000000E+00
  0.00000000E+00  0.00000000E+00  0.00000000E+00
  0.00000000E+00  0.00000000E+00  0.00000000E+00
  0.00000000E+00  0.00000000E+00  0.00000000E+00
  0.00000000E+00  0.00000000E+00  0.00000000E+00
  0.00000000E+00  0.00000000E+00  0.00000000E+00
  0.00000000E+00  0.00000000E+00  0.00000000E+00
  0.00000000E+00  0.00000000E+00  0.00000000E+00
  0.00000000E+00  0.00000000E+00  0.00000000E+00
  0.00000000E+00  0.00000000E+00  0.00000000E+00
  0.00000000E+00  0.00000000E+00  0.00000000E+00
  0.00000000E+00  0.00000000E+00  0.00000000E+00
  0.00000000E+00  0.00000000E+00  0.00000000E+00
  0.00000000E+00  0.00000000E+00  0.00000000E+00
  0.00000000E+00  0.00000000E+00  0.00000000E+00
  0.00000000E+00  0.00000000E+00  0.00000000E+00
  0.00000000E+00  0.00000000E+00  0.00000000E+00
  0.00000000E+00  0.00000000E+00  0.00000000E+00
