Poscar file generated with pyiron       
   1.00000000000000     
     4.7885043538542229    0.0462546183522615    0.1515555687580845
    -0.1131354045764788   10.4546177663362521    0.4345593576758685
    -0.5589747211934644   -0.7408118034401444   17.7970479134672281
   Cs   I    Pb
     4    12     4
Direct
  0.6525954894703183 -0.0008827662866846  0.3383729823644992
  0.1558421974582586  0.8330185929744693  0.6824931206866423
  0.6523577904773956  0.5009116270229715  0.1824818663648859
  0.1564146568205976  0.3336639783851503  0.8386615482023297
  0.6532990994114601  0.2567987221824865  0.0089092206179903
  0.1537286915287077  0.5784067102234268  0.0118956021743940
  0.6541499422072817  0.7531639408553858  0.5127627631346716
  0.1543349090594931  0.0745759741415223  0.5086295193053503
  0.1533196634209884  0.9517512017946669  0.8973637246812119
  0.6532885627153407  0.8832352630821996  0.1234354896123700
  0.1541032029928620  0.4476020750205111  0.6236837777733368
  0.6545312007053391  0.3807116976228344  0.3975264393658384
  0.1528670210340382  0.2174872697112569  0.2249234260017283
  0.6552936627919981  0.6168000690629734  0.7959565572665576
  0.1530847957250250  0.7157418642946624  0.2967299223866418
  0.6553011456117422  0.1153861852710345  0.7252361331799478
  0.1530262597621387  0.0779487636785847  0.0715071501378978
  0.6538919511730344  0.7572103189058496  0.9492295622570038
  0.1541867919826471  0.5748532967921874  0.4499807036568723
  0.6543705561385550  0.2535356923821123  0.5713450977431106
 
  0.00000000E+00  0.00000000E+00  0.00000000E+00
  0.00000000E+00  0.00000000E+00  0.00000000E+00
  0.00000000E+00  0.00000000E+00  0.00000000E+00
  0.00000000E+00  0.00000000E+00  0.00000000E+00
  0.00000000E+00  0.00000000E+00  0.00000000E+00
  0.00000000E+00  0.00000000E+00  0.00000000E+00
  0.00000000E+00  0.00000000E+00  0.00000000E+00
  0.00000000E+00  0.00000000E+00  0.00000000E+00
  0.00000000E+00  0.00000000E+00  0.00000000E+00
  0.00000000E+00  0.00000000E+00  0.00000000E+00
  0.00000000E+00  0.00000000E+00  0.00000000E+00
  0.00000000E+00  0.00000000E+00  0.00000000E+00
  0.00000000E+00  0.00000000E+00  0.00000000E+00
  0.00000000E+00  0.00000000E+00  0.00000000E+00
  0.00000000E+00  0.00000000E+00  0.00000000E+00
  0.00000000E+00  0.00000000E+00  0.00000000E+00
  0.00000000E+00  0.00000000E+00  0.00000000E+00
  0.00000000E+00  0.00000000E+00  0.00000000E+00
  0.00000000E+00  0.00000000E+00  0.00000000E+00
  0.00000000E+00  0.00000000E+00  0.00000000E+00
