Poscar file generated with pyiron       
   1.00000000000000     
     4.7793540329254034   -0.0045472038472107    0.3039527115729435
    -0.0025500474057620   10.4722563336489110    0.2112061056213210
    -1.1331131339270377   -0.3619353545891246   17.7745265362095104
   Cs   I    Pb
     4    12     4
Direct
  0.6143297609843547  0.0041976907038001  0.3406966837503135
  0.1128267013907217  0.8428601764698664  0.6843863944628822
  0.6166955473096307  0.5050322911920808  0.1843968452377128
  0.1163110921897870  0.3433909484908942  0.8409655896125355
  0.6216673604815164  0.2636873417298010  0.0110005498718408
  0.1203292770916938  0.5859624417939953  0.0142564779493058
  0.6111469071958290  0.7619444035319436  0.5145887902553944
  0.1118065240451232  0.0841344577503662  0.5108566424145523
  0.1202885575053844  0.9591878540498729  0.8993961223702812
  0.6223626473403046  0.8900969491022123  0.1256257542269320
  0.1118620357437991  0.4573609202237794  0.6259580253173351
  0.6108810378749826  0.3886582514401901  0.3996276740213031
  0.1161193928501353  0.2223423323246749  0.2277293209423307
  0.6152340928821171  0.6258244361049908  0.7975632455040970
  0.1143326138031558  0.7213842017272553  0.2979236528613471
  0.6144142872977464  0.1253797217312642  0.7278822205380096
  0.1229526264155416  0.0845773652437716  0.0736590039067072
  0.6205929794476358  0.7647334005581601  0.9513254267907626
  0.1105663500059723  0.5829175431223130  0.4518906929671409
  0.6118042947879159  0.2630338517158829  0.5737437691554617
 
  0.00000000E+00  0.00000000E+00  0.00000000E+00
  0.00000000E+00  0.00000000E+00  0.00000000E+00
  0.00000000E+00  0.00000000E+00  0.00000000E+00
  0.00000000E+00  0.00000000E+00  0.00000000E+00
  0.00000000E+00  0.00000000E+00  0.00000000E+00
  0.00000000E+00  0.00000000E+00  0.00000000E+00
  0.00000000E+00  0.00000000E+00  0.00000000E+00
  0.00000000E+00  0.00000000E+00  0.00000000E+00
  0.00000000E+00  0.00000000E+00  0.00000000E+00
  0.00000000E+00  0.00000000E+00  0.00000000E+00
  0.00000000E+00  0.00000000E+00  0.00000000E+00
  0.00000000E+00  0.00000000E+00  0.00000000E+00
  0.00000000E+00  0.00000000E+00  0.00000000E+00
  0.00000000E+00  0.00000000E+00  0.00000000E+00
  0.00000000E+00  0.00000000E+00  0.00000000E+00
  0.00000000E+00  0.00000000E+00  0.00000000E+00
  0.00000000E+00  0.00000000E+00  0.00000000E+00
  0.00000000E+00  0.00000000E+00  0.00000000E+00
  0.00000000E+00  0.00000000E+00  0.00000000E+00
  0.00000000E+00  0.00000000E+00  0.00000000E+00
