Poscar file generated with pyiron       
   1.00000000000000     
     4.7827283318929918    0.0293371289304791    0.1802083791898912
    -0.0694458159862385   10.4710533925041354    0.2071081262307914
    -0.6676250031030038   -0.3590920635475403   17.7946263325938254
   Cs   I    Pb
     4    12     4
Direct
  0.6107631338250231 -0.0011991898117878  0.3504179154619641
  0.1103296840203417  0.8357615541737918  0.6939193957038499
  0.6130493380730360  0.4982951781985246  0.1939550026336688
  0.1128341957556269  0.3353836829700708  0.8503981547681100
  0.6160740545785263  0.2551518986649132  0.0204885105603445
  0.1161406478233276  0.5773291226586715  0.0237186464993154
  0.6070084547136337  0.7566784921467740  0.5237800814874467
  0.1070303886528828  0.0787196628546457  0.5204788129134509
  0.1164026665803388  0.9508789138084341  0.9091101871658582
  0.6161555361107121  0.8819167850872449  0.1353124103191444
  0.1069278758921940  0.4519576136078051  0.6352901935814330
  0.6067557874044878  0.3832046228553540  0.4091250193771653
  0.1123827359417472  0.2154967490069133  0.2370282702293960
  0.6118484542019436  0.6182362258843178  0.8071180703032532
  0.1110548177609494  0.7159434414829595  0.3071607302711089
  0.6108892023063738  0.1184345754413732  0.7370364647681891
  0.1164667344944516  0.0762685403148188  0.0832564370633340
  0.6166631726269985  0.7564972860480172  0.9611138382822980
  0.1064803412715451  0.5776371933635249  0.4610860857627490
  0.6067238166168757  0.2575830005612020  0.5832728115985557
 
  0.00000000E+00  0.00000000E+00  0.00000000E+00
  0.00000000E+00  0.00000000E+00  0.00000000E+00
  0.00000000E+00  0.00000000E+00  0.00000000E+00
  0.00000000E+00  0.00000000E+00  0.00000000E+00
  0.00000000E+00  0.00000000E+00  0.00000000E+00
  0.00000000E+00  0.00000000E+00  0.00000000E+00
  0.00000000E+00  0.00000000E+00  0.00000000E+00
  0.00000000E+00  0.00000000E+00  0.00000000E+00
  0.00000000E+00  0.00000000E+00  0.00000000E+00
  0.00000000E+00  0.00000000E+00  0.00000000E+00
  0.00000000E+00  0.00000000E+00  0.00000000E+00
  0.00000000E+00  0.00000000E+00  0.00000000E+00
  0.00000000E+00  0.00000000E+00  0.00000000E+00
  0.00000000E+00  0.00000000E+00  0.00000000E+00
  0.00000000E+00  0.00000000E+00  0.00000000E+00
  0.00000000E+00  0.00000000E+00  0.00000000E+00
  0.00000000E+00  0.00000000E+00  0.00000000E+00
  0.00000000E+00  0.00000000E+00  0.00000000E+00
  0.00000000E+00  0.00000000E+00  0.00000000E+00
  0.00000000E+00  0.00000000E+00  0.00000000E+00
