Poscar file generated with pyiron       
   1.00000000000000     
     4.7815765112108499    0.0573975526345390    0.2158027247132302
    -0.1300650834853744   10.4631012063760860    0.1578806722614038
    -0.7974605254241687   -0.2899968740565536   17.8003215269734127
   Cs   I    Pb
     4    12     4
Direct
  0.6217145855330569  0.0140032038615402  0.3423308103416376
  0.1182198307731037  0.8510877023756872  0.6858265419552643
  0.6216123286814291  0.5148261839457801  0.1857402206222686
  0.1193481631956489  0.3508703127858720  0.8425974140368192
  0.6225964310336174  0.2723038113991917  0.0128353293146516
  0.1220617503910171  0.5946679980700155  0.0155048414812205
  0.6203467262681412  0.7700391115050118  0.5162303351140488
  0.1205134052799386  0.0920105231100455  0.5125036464536123
  0.1216285149585132  0.9681582104787514  0.9009164862441503
  0.6231447319699247  0.8984105852126585  0.1272155147377195
  0.1203274905304582  0.4658343147192579  0.6272038231857522
  0.6208115193820101  0.3968143005469628  0.4010827827669538
  0.1219573853604908  0.2319400319981717  0.2289642864927450
  0.6187981556336795  0.6340610931945201  0.7991815364474726
  0.1214100604547536  0.7313127753122262  0.2998570371884881
  0.6189497332103380  0.1336251981205200  0.7290227563163086
  0.1232858728972366  0.0931084189623469  0.0753842985633073
  0.6225000294316894  0.7735021054381032  0.9527077449316443
  0.1202988352792408  0.5913693716699738  0.4532766543167899
  0.6197047304556911  0.2714055507200984  0.5750858436951444
 
  0.00000000E+00  0.00000000E+00  0.00000000E+00
  0.00000000E+00  0.00000000E+00  0.00000000E+00
  0.00000000E+00  0.00000000E+00  0.00000000E+00
  0.00000000E+00  0.00000000E+00  0.00000000E+00
  0.00000000E+00  0.00000000E+00  0.00000000E+00
  0.00000000E+00  0.00000000E+00  0.00000000E+00
  0.00000000E+00  0.00000000E+00  0.00000000E+00
  0.00000000E+00  0.00000000E+00  0.00000000E+00
  0.00000000E+00  0.00000000E+00  0.00000000E+00
  0.00000000E+00  0.00000000E+00  0.00000000E+00
  0.00000000E+00  0.00000000E+00  0.00000000E+00
  0.00000000E+00  0.00000000E+00  0.00000000E+00
  0.00000000E+00  0.00000000E+00  0.00000000E+00
  0.00000000E+00  0.00000000E+00  0.00000000E+00
  0.00000000E+00  0.00000000E+00  0.00000000E+00
  0.00000000E+00  0.00000000E+00  0.00000000E+00
  0.00000000E+00  0.00000000E+00  0.00000000E+00
  0.00000000E+00  0.00000000E+00  0.00000000E+00
  0.00000000E+00  0.00000000E+00  0.00000000E+00
  0.00000000E+00  0.00000000E+00  0.00000000E+00
