Poscar file generated with pyiron       
   1.00000000000000     
     4.7868539797626113   -0.0628971308054840   -0.0620589848149774
     0.1442827062998434   10.4621304062907932    0.2819927702951247
     0.2197813935286376   -0.4934510547614996   17.8002441062357448
   Cs   I    Pb
     4    12     4
Direct
  0.6795156674170784  0.0147270849413329  0.3428868277396076
  0.1790456601523191  0.8512562643968189  0.6865377192725780
  0.6777668357677893  0.5160997012270030  0.1868146827677814
  0.1772380960949935  0.3521738015874414  0.8432876497176349
  0.6743003174410186  0.2736784657090746  0.0136842209205225
  0.1747103296873473  0.5960175454968403  0.0164282922153709
  0.6807488096449167  0.7707337327811024  0.5167773713775347
  0.1811317549014689  0.0923358397968699  0.5130918764779410
  0.1746879003020279  0.9693016132150365  0.9017917799773455
  0.6743907559526225  0.8998517624142066  0.1278780136524972
  0.1807505179783882  0.4658443488432545  0.6279852997838830
  0.6811285987583829  0.3973451312385580  0.4020320840659097
  0.1782664101643564  0.2331232681048474  0.2300778639130797
  0.6777298883230980  0.6347094481719804  0.7999103378069148
  0.1789418217132530  0.7316964578218674  0.3004898658187107
  0.6786308894416093  0.1338157094447492  0.7301442992496009
  0.1744605422676652  0.0945934924085831  0.0762413110545256
  0.6741929736839033  0.7747396041642756  0.9534868947017915
  0.1813091002675872  0.5917676587242893  0.4541135337444058
  0.6810214000951825  0.2712195989416893  0.5760492279681599
 
  0.00000000E+00  0.00000000E+00  0.00000000E+00
  0.00000000E+00  0.00000000E+00  0.00000000E+00
  0.00000000E+00  0.00000000E+00  0.00000000E+00
  0.00000000E+00  0.00000000E+00  0.00000000E+00
  0.00000000E+00  0.00000000E+00  0.00000000E+00
  0.00000000E+00  0.00000000E+00  0.00000000E+00
  0.00000000E+00  0.00000000E+00  0.00000000E+00
  0.00000000E+00  0.00000000E+00  0.00000000E+00
  0.00000000E+00  0.00000000E+00  0.00000000E+00
  0.00000000E+00  0.00000000E+00  0.00000000E+00
  0.00000000E+00  0.00000000E+00  0.00000000E+00
  0.00000000E+00  0.00000000E+00  0.00000000E+00
  0.00000000E+00  0.00000000E+00  0.00000000E+00
  0.00000000E+00  0.00000000E+00  0.00000000E+00
  0.00000000E+00  0.00000000E+00  0.00000000E+00
  0.00000000E+00  0.00000000E+00  0.00000000E+00
  0.00000000E+00  0.00000000E+00  0.00000000E+00
  0.00000000E+00  0.00000000E+00  0.00000000E+00
  0.00000000E+00  0.00000000E+00  0.00000000E+00
  0.00000000E+00  0.00000000E+00  0.00000000E+00
