Poscar file generated with pyiron       
   1.00000000000000     
     4.7821186886756841   -0.0531885905218639    0.1476280184651302
     0.1017307326573649   10.4617215938317081    0.2994550886703381
    -0.5508075007983823   -0.5007625579689375   17.7923877692628523
   Cs   I    Pb
     4    12     4
Direct
  0.7404978614688053  0.1156857884082669  0.3591606291964369
  0.2406619230008482  0.9524194927858292  0.7023961594730420
  0.7412885346065500  0.6163312644927544  0.2026609970002023
  0.2411036726633612  0.4528772029430643  0.8594412729545494
  0.7405811561492521  0.3734182914679960  0.0297186264416534
  0.2426788460874675  0.6955797333378712  0.0326901010734390
  0.7406092061022010  0.8722144926005044  0.5323801073265393
  0.2400794447514246  0.1946544295834317  0.5293937773621544
  0.2434313516890386  0.0693204109997332  0.9182468951567038
  0.7402890170332410 -0.0001294372301876  0.1444454810728373
  0.2400864677768120  0.5680239609037965  0.6442991546673832
  0.7409921585170856  0.4987480992153603  0.4179006753211886
  0.2406597778661769  0.3335314235597986  0.2461096177728754
  0.7411256419753282  0.7360563225404363  0.8164226083443782
  0.2407948897504096  0.8326084276492600  0.3163351235054885
  0.7409259461782578  0.2350029918553632  0.7460273966450347
  0.2399927041169045  0.1945370979632758  0.0924725218070657
  0.7438532929701139  0.8748107009494999  0.9701648289465652
  0.2406879302606818  0.6930971107027044  0.4698816800791203
  0.7400030054238190  0.3735670993865779  0.5922106025780235
 
  0.00000000E+00  0.00000000E+00  0.00000000E+00
  0.00000000E+00  0.00000000E+00  0.00000000E+00
  0.00000000E+00  0.00000000E+00  0.00000000E+00
  0.00000000E+00  0.00000000E+00  0.00000000E+00
  0.00000000E+00  0.00000000E+00  0.00000000E+00
  0.00000000E+00  0.00000000E+00  0.00000000E+00
  0.00000000E+00  0.00000000E+00  0.00000000E+00
  0.00000000E+00  0.00000000E+00  0.00000000E+00
  0.00000000E+00  0.00000000E+00  0.00000000E+00
  0.00000000E+00  0.00000000E+00  0.00000000E+00
  0.00000000E+00  0.00000000E+00  0.00000000E+00
  0.00000000E+00  0.00000000E+00  0.00000000E+00
  0.00000000E+00  0.00000000E+00  0.00000000E+00
  0.00000000E+00  0.00000000E+00  0.00000000E+00
  0.00000000E+00  0.00000000E+00  0.00000000E+00
  0.00000000E+00  0.00000000E+00  0.00000000E+00
  0.00000000E+00  0.00000000E+00  0.00000000E+00
  0.00000000E+00  0.00000000E+00  0.00000000E+00
  0.00000000E+00  0.00000000E+00  0.00000000E+00
  0.00000000E+00  0.00000000E+00  0.00000000E+00
