Poscar file generated with pyiron       
   1.00000000000000     
     4.7850633062543579    0.0331612504539993    0.1072072040294496
    -0.0838148283283737   10.4743624810807532    0.1377622846369712
    -0.3970864666434353   -0.2317112985778636   17.8017284817744894
   Cs   I    Pb
     4    12     4
Direct
  0.7301997630068456  0.1104624829804068  0.3459152050596235
  0.2307019154512032  0.9488554856258263  0.6887522045211394
  0.7297881864571891  0.6113022735100049  0.1890294033382797
  0.2305860390786227  0.4495869131917969  0.8458343591131439
  0.7303728711593872  0.3697569623143127  0.0161988036692711
  0.2301358050851980  0.6921597352171133  0.0186302757193368
  0.7306867629733066  0.8671141263038437  0.5190964687855087
  0.2309797264587349  0.1899662367197228  0.5158221873859067
  0.2298567848242102  0.0658952326835214  0.9043654766951568
  0.7304883937609981 -0.0042193786738532  0.1304035996682695
  0.2311684867571544  0.5632748686589903  0.6306097837726158
  0.7305834655488258  0.4940890206259214  0.4042482844211254
  0.2300167301991020  0.3283815039213693  0.2327639338666177
  0.7306159125180492  0.7323246665875279  0.8021437545024280
  0.2298086209294217  0.8278592498245834  0.3026444283985987
  0.7306400467855759  0.2313159166673231  0.7327031187444807
  0.2305167739736987  0.1905080747506644  0.0787850945861942
  0.7301982037817630  0.8713846175914320  0.9559568945249379
  0.2304805241465795  0.6882319052625503  0.4562847061606085
  0.7312284774894119  0.3690655492590461  0.5786582288792005
 
  0.00000000E+00  0.00000000E+00  0.00000000E+00
  0.00000000E+00  0.00000000E+00  0.00000000E+00
  0.00000000E+00  0.00000000E+00  0.00000000E+00
  0.00000000E+00  0.00000000E+00  0.00000000E+00
  0.00000000E+00  0.00000000E+00  0.00000000E+00
  0.00000000E+00  0.00000000E+00  0.00000000E+00
  0.00000000E+00  0.00000000E+00  0.00000000E+00
  0.00000000E+00  0.00000000E+00  0.00000000E+00
  0.00000000E+00  0.00000000E+00  0.00000000E+00
  0.00000000E+00  0.00000000E+00  0.00000000E+00
  0.00000000E+00  0.00000000E+00  0.00000000E+00
  0.00000000E+00  0.00000000E+00  0.00000000E+00
  0.00000000E+00  0.00000000E+00  0.00000000E+00
  0.00000000E+00  0.00000000E+00  0.00000000E+00
  0.00000000E+00  0.00000000E+00  0.00000000E+00
  0.00000000E+00  0.00000000E+00  0.00000000E+00
  0.00000000E+00  0.00000000E+00  0.00000000E+00
  0.00000000E+00  0.00000000E+00  0.00000000E+00
  0.00000000E+00  0.00000000E+00  0.00000000E+00
  0.00000000E+00  0.00000000E+00  0.00000000E+00
