Poscar file generated with pyiron       
   1.00000000000000     
     4.7848032008686374   -0.0103209608078678    0.1085581291988508
     0.0109124780379719   10.4668653389426840    0.2727931692176835
    -0.4070914314263446   -0.4554065107441850   17.7943409849544452
   Cs   I    Pb
     4    12     4
Direct
  0.6874975666090921  0.0848475820212022  0.3511506943967099
  0.1882476290841204  0.9212490619297685  0.6944634902673023
  0.6883352344221124  0.5858166668433177  0.1946124956482128
  0.1894582489136843  0.4221832788719319  0.8514144304778337
  0.6905012890983130  0.3436683361518412  0.0214165957543991
  0.1888437518075905  0.6657093086179580  0.0247396174424393
  0.6869706976339579  0.8410177316708329  0.5245629491533232
  0.1864457113138170  0.1631814562657680  0.5214127168944118
  0.1893727798163785  0.0385210973836304  0.9098786390323506
  0.6899410528229871 -0.0296040749016287  0.1360717388705241
  0.1870019905833289  0.5364044894315020  0.6362139824495510
  0.6863937321874677  0.4678583760899921  0.4100144725928704
  0.1887524704106520  0.3027453074877107  0.2377606579788516
  0.6886786393262810  0.7050597987979804  0.8083382914632288
  0.1879755379822378  0.8017870972118472  0.3084581771813357
  0.6879872535343112  0.2039782701562939  0.7381338400824528
  0.1909047385843551  0.1647049619070023  0.0839903303935892
  0.6888683496572179  0.8444694886166814  0.9619117347291201
  0.1866663313113078  0.6621390519456597  0.4620261705013930
  0.6862674441900966  0.3421122510720284  0.5841979455465571
 
  0.00000000E+00  0.00000000E+00  0.00000000E+00
  0.00000000E+00  0.00000000E+00  0.00000000E+00
  0.00000000E+00  0.00000000E+00  0.00000000E+00
  0.00000000E+00  0.00000000E+00  0.00000000E+00
  0.00000000E+00  0.00000000E+00  0.00000000E+00
  0.00000000E+00  0.00000000E+00  0.00000000E+00
  0.00000000E+00  0.00000000E+00  0.00000000E+00
  0.00000000E+00  0.00000000E+00  0.00000000E+00
  0.00000000E+00  0.00000000E+00  0.00000000E+00
  0.00000000E+00  0.00000000E+00  0.00000000E+00
  0.00000000E+00  0.00000000E+00  0.00000000E+00
  0.00000000E+00  0.00000000E+00  0.00000000E+00
  0.00000000E+00  0.00000000E+00  0.00000000E+00
  0.00000000E+00  0.00000000E+00  0.00000000E+00
  0.00000000E+00  0.00000000E+00  0.00000000E+00
  0.00000000E+00  0.00000000E+00  0.00000000E+00
  0.00000000E+00  0.00000000E+00  0.00000000E+00
  0.00000000E+00  0.00000000E+00  0.00000000E+00
  0.00000000E+00  0.00000000E+00  0.00000000E+00
  0.00000000E+00  0.00000000E+00  0.00000000E+00
