Poscar file generated with pyiron       
   1.00000000000000     
     4.7870782942351759    0.0389666809559452    0.0231363533886275
    -0.0838243453615384   10.4547691491448234    0.3092485185962154
    -0.0800326935239131   -0.5211150527060068   17.8044704002423195
   Cs   I    Pb
     4    12     4
Direct
  0.6859161684156992  0.0435673269500398  0.3576710803852891
  0.1861048946019186  0.8774516370151230  0.7017873251352079
  0.6834104065364922  0.5432070988211920  0.2014638909190243
  0.1842852811326045  0.3768176710184471  0.8576069417915182
  0.6810295342589933  0.2992700206518022  0.0280522279127313
  0.1806778949863957  0.6204814813907381  0.0309803753796351
  0.6891146516383313  0.8002487356134301  0.5313564105867701
  0.1892187654173463  0.1213597394760650  0.5280362103320758
  0.1802695243295180  0.9944454222554423  0.9166327435845604
  0.6807412920816056  0.9257129658470366  0.1425387028885481
  0.1894377937640354  0.4948492644496060  0.6425662928729590
  0.6893056108402936  0.4269310807409115  0.4165749159281935
  0.1840627937112565  0.2600779434903965  0.2441164793073089
  0.6844689443744980  0.6601112071862385  0.8151034260707551
  0.1851111651820072  0.7607129457473299  0.3150025507616461
  0.6855946804481258  0.1604132658108701  0.7440056068225318
  0.1809823100847654  0.1203017572493278  0.0906629815275293
  0.6795758520572603  0.7997035011943638  0.9685697994747529
  0.1895026409591658  0.6215819576306640  0.4686188553695192
  0.6894223571927262  0.3002570743651192  0.5905548540470327
 
  0.00000000E+00  0.00000000E+00  0.00000000E+00
  0.00000000E+00  0.00000000E+00  0.00000000E+00
  0.00000000E+00  0.00000000E+00  0.00000000E+00
  0.00000000E+00  0.00000000E+00  0.00000000E+00
  0.00000000E+00  0.00000000E+00  0.00000000E+00
  0.00000000E+00  0.00000000E+00  0.00000000E+00
  0.00000000E+00  0.00000000E+00  0.00000000E+00
  0.00000000E+00  0.00000000E+00  0.00000000E+00
  0.00000000E+00  0.00000000E+00  0.00000000E+00
  0.00000000E+00  0.00000000E+00  0.00000000E+00
  0.00000000E+00  0.00000000E+00  0.00000000E+00
  0.00000000E+00  0.00000000E+00  0.00000000E+00
  0.00000000E+00  0.00000000E+00  0.00000000E+00
  0.00000000E+00  0.00000000E+00  0.00000000E+00
  0.00000000E+00  0.00000000E+00  0.00000000E+00
  0.00000000E+00  0.00000000E+00  0.00000000E+00
  0.00000000E+00  0.00000000E+00  0.00000000E+00
  0.00000000E+00  0.00000000E+00  0.00000000E+00
  0.00000000E+00  0.00000000E+00  0.00000000E+00
  0.00000000E+00  0.00000000E+00  0.00000000E+00
