Poscar file generated with pyiron       
   1.00000000000000     
     4.7845100349993528   -0.0011943221794535    0.1780033212812129
    -0.0027303929201114   10.4697828437947251    0.1659267994202271
    -0.6524914972851632   -0.2722437965602866   17.7935584269622318
   Cs   I    Pb
     4    12     4
Direct
  0.7267410795381375  0.0942013643639125  0.3335682796387112
  0.2264518653052157  0.9295867790920548  0.6768148442594049
  0.7257884481939380  0.5931355212838912  0.1771521929489598
  0.2256327708571278  0.4283390073839600  0.8334305701622288
  0.7249981851470944  0.3485926778694216  0.0034781295433409
  0.2246619562979019  0.6701354543366618  0.0068629886595446
  0.7277731747455681  0.8520528819010702  0.5067942934535609
  0.2284525939256722  0.1740029208151702  0.5033506911125925
  0.2247399412750823  0.0437571631993838  0.8924091602119888
  0.7244811030156574  0.9756955280597793  0.1183461333612386
  0.2280765713546102  0.5465911960173234  0.6184078225982163
  0.7283765726207623  0.4786722118203239  0.3920998468983192
  0.2265606491568718  0.3102325259527758  0.2198099116018006
  0.7265303286121874  0.7115850377075316  0.7904314276784223
  0.2264147519623303  0.8114088165098005  0.2905494475587250
  0.7266915667434537  0.2123259383747358  0.7196423793199664
  0.2247289208972873  0.1700360475009015  0.0663172900034334
  0.7243915219422616  0.8494081792512326  0.9443324196058126
  0.2280462888448564  0.6730131364373338  0.4443648847943914
  0.7288419635896675  0.3525305055235228  0.5661752519115091
 
  0.00000000E+00  0.00000000E+00  0.00000000E+00
  0.00000000E+00  0.00000000E+00  0.00000000E+00
  0.00000000E+00  0.00000000E+00  0.00000000E+00
  0.00000000E+00  0.00000000E+00  0.00000000E+00
  0.00000000E+00  0.00000000E+00  0.00000000E+00
  0.00000000E+00  0.00000000E+00  0.00000000E+00
  0.00000000E+00  0.00000000E+00  0.00000000E+00
  0.00000000E+00  0.00000000E+00  0.00000000E+00
  0.00000000E+00  0.00000000E+00  0.00000000E+00
  0.00000000E+00  0.00000000E+00  0.00000000E+00
  0.00000000E+00  0.00000000E+00  0.00000000E+00
  0.00000000E+00  0.00000000E+00  0.00000000E+00
  0.00000000E+00  0.00000000E+00  0.00000000E+00
  0.00000000E+00  0.00000000E+00  0.00000000E+00
  0.00000000E+00  0.00000000E+00  0.00000000E+00
  0.00000000E+00  0.00000000E+00  0.00000000E+00
  0.00000000E+00  0.00000000E+00  0.00000000E+00
  0.00000000E+00  0.00000000E+00  0.00000000E+00
  0.00000000E+00  0.00000000E+00  0.00000000E+00
  0.00000000E+00  0.00000000E+00  0.00000000E+00
