Poscar file generated with pyiron       
   1.00000000000000     
     4.7816516938228171    0.0060870801015102   -0.0985476903671797
    -0.0139230015950741   10.4715427383073720    0.2137445109651916
     0.3716066398240516   -0.3631864953241875   17.7939052023329189
   Cs   I    Pb
     4    12     4
Direct
  0.6768225427974893  0.0319700826706825  0.3561247002547192
  0.1804622031409758  0.8714221889912208  0.6993507060301807
  0.6748460156346477  0.5324805559184277  0.1990961854675260
  0.1771149103726651  0.3717311811769478  0.8561530460804845
  0.6712271043707986  0.2912411020884376  0.0261597861005513
  0.1712992075426033  0.6142471974394534  0.0287058374975720
  0.6812193797388101  0.7897339302259222  0.5295602735474979
  0.1799247428271903  0.1124046398432320  0.5262574704829182
  0.1714394208459192 -0.0124424361103656  0.9141231115106115
  0.6696051512655506  0.9172315448013469  0.1401772018935917
  0.1802629247244847  0.4857307929727161  0.6408226125902640
  0.6807440051224407  0.4166176213522883  0.4146117653782815
  0.1746076943376238  0.2493991111065989  0.2427381392435428
  0.6779232825741850  0.6540135873045784  0.8120583166203914
  0.1758433061858228  0.7491851917301549  0.3129005425888368
  0.6788658882950294  0.1541804854151591  0.7431296533339752
  0.1699979415152950  0.1118438149953628  0.0886437570894886
  0.6711696258090954  0.7930181453247894  0.9657869839840345
  0.1811578835630241  0.6106901938064940  0.4667958505831144
  0.6801617413913306  0.2914379495168778  0.5889804516857954
 
  0.00000000E+00  0.00000000E+00  0.00000000E+00
  0.00000000E+00  0.00000000E+00  0.00000000E+00
  0.00000000E+00  0.00000000E+00  0.00000000E+00
  0.00000000E+00  0.00000000E+00  0.00000000E+00
  0.00000000E+00  0.00000000E+00  0.00000000E+00
  0.00000000E+00  0.00000000E+00  0.00000000E+00
  0.00000000E+00  0.00000000E+00  0.00000000E+00
  0.00000000E+00  0.00000000E+00  0.00000000E+00
  0.00000000E+00  0.00000000E+00  0.00000000E+00
  0.00000000E+00  0.00000000E+00  0.00000000E+00
  0.00000000E+00  0.00000000E+00  0.00000000E+00
  0.00000000E+00  0.00000000E+00  0.00000000E+00
  0.00000000E+00  0.00000000E+00  0.00000000E+00
  0.00000000E+00  0.00000000E+00  0.00000000E+00
  0.00000000E+00  0.00000000E+00  0.00000000E+00
  0.00000000E+00  0.00000000E+00  0.00000000E+00
  0.00000000E+00  0.00000000E+00  0.00000000E+00
  0.00000000E+00  0.00000000E+00  0.00000000E+00
  0.00000000E+00  0.00000000E+00  0.00000000E+00
  0.00000000E+00  0.00000000E+00  0.00000000E+00
