Poscar file generated with pyiron       
   1.00000000000000     
     4.7794290704269518    0.0445591784216174    0.2322216586094583
    -0.1008886645019389   10.4669431048575117    0.1859921952056787
    -0.8585465543228409   -0.3169443851516472   17.7827876619273653
   Cs   I    Pb
     4    12     4
Direct
  0.6116086109969453  0.0147296406607652  0.3470237536191196
  0.1089784358668469  0.8517251802319887  0.6903248355585057
  0.6134454488227329  0.5151041007925521  0.1901701167141012
  0.1107055315087419  0.3519402046401542  0.8468273674835847
  0.6132009204801416  0.2723241230263122  0.0168523108668357
  0.1131991019733278  0.5945538580291009  0.0202727404084650
  0.6076696997118741  0.7713874095298956  0.5200537451344383
  0.1075516481952144  0.0938461654376345  0.5173845005602663
  0.1129363020017353  0.9677679060747664  0.9054741237784888
  0.6135292314226682  0.8991078287669400  0.1317538354027751
  0.1069166516754313  0.4675100116070317  0.6316660126432144
  0.6080451664797816  0.3979593002803931  0.4055722039873215
  0.1128366031528739  0.2319224775113676  0.2333221475442095
  0.6102624011996984  0.6348292983599811  0.8038311419958420
  0.1122598009189262  0.7318686562576759  0.3037422864275657
  0.6096001544127366  0.1344408165186104  0.7337790366142068
  0.1137809719401940  0.0934550885910878  0.0795875527281640
  0.6132201841105752  0.7736571314133900  0.9576250374597877
  0.1077676150119529  0.5925400863317637  0.4573123023212025
  0.6068393853996800  0.2728324423276910  0.5800056255270283
 
  0.00000000E+00  0.00000000E+00  0.00000000E+00
  0.00000000E+00  0.00000000E+00  0.00000000E+00
  0.00000000E+00  0.00000000E+00  0.00000000E+00
  0.00000000E+00  0.00000000E+00  0.00000000E+00
  0.00000000E+00  0.00000000E+00  0.00000000E+00
  0.00000000E+00  0.00000000E+00  0.00000000E+00
  0.00000000E+00  0.00000000E+00  0.00000000E+00
  0.00000000E+00  0.00000000E+00  0.00000000E+00
  0.00000000E+00  0.00000000E+00  0.00000000E+00
  0.00000000E+00  0.00000000E+00  0.00000000E+00
  0.00000000E+00  0.00000000E+00  0.00000000E+00
  0.00000000E+00  0.00000000E+00  0.00000000E+00
  0.00000000E+00  0.00000000E+00  0.00000000E+00
  0.00000000E+00  0.00000000E+00  0.00000000E+00
  0.00000000E+00  0.00000000E+00  0.00000000E+00
  0.00000000E+00  0.00000000E+00  0.00000000E+00
  0.00000000E+00  0.00000000E+00  0.00000000E+00
  0.00000000E+00  0.00000000E+00  0.00000000E+00
  0.00000000E+00  0.00000000E+00  0.00000000E+00
  0.00000000E+00  0.00000000E+00  0.00000000E+00
