Poscar file generated with pyiron       
   1.00000000000000     
     4.7803093673377566    0.0459864452957376    0.2405525985248148
    -0.1131045306219489   10.4692143890000029    0.2302113138357725
    -0.8917965002107124   -0.4031913879936144   17.7794045704450987
   Cs   I    Pb
     4    12     4
Direct
  0.6188078786204643 -0.0008378107300365  0.3464591506004291
  0.1192035973136700  0.8357515664921383  0.6902418995293583
  0.6213067337613508  0.4996755213330843  0.1902966508731017
  0.1220030901006435  0.3360698117740939  0.8466370048613889
  0.6257413888676154  0.2570278895387649  0.0166857431056920
  0.1257758408891935  0.5789209821578385  0.0202843702816265
  0.6166904356968215  0.7560851211409431  0.5203892796581502
  0.1170489448565594  0.0779899203162684  0.5166831264159035
  0.1261158754709373  0.9521280515966309  0.9055507689384671
  0.6257390599759890  0.8838482139029513  0.1316328857357505
  0.1171812758059839  0.4509447500570490  0.6317844314318480
  0.6165087916770201  0.3829155450885907  0.4056470635059444
  0.1207596102785720  0.2169391489028613  0.2332773718514282
  0.6213826042070512  0.6190389110691399  0.8038608985620075
  0.1195867588730409  0.7160573496668787  0.3041024123727237
  0.6202094808862390  0.1183361667338828  0.7334702244545007
  0.1261495350741244  0.0782786671284805  0.0795205644738115
  0.6265498707892839  0.7578317042583381  0.9575668137177572
  0.1161865575922580  0.5771534231189517  0.4578103820805569
  0.6169994959818815  0.2566378269905011  0.5795872510940988
 
  0.00000000E+00  0.00000000E+00  0.00000000E+00
  0.00000000E+00  0.00000000E+00  0.00000000E+00
  0.00000000E+00  0.00000000E+00  0.00000000E+00
  0.00000000E+00  0.00000000E+00  0.00000000E+00
  0.00000000E+00  0.00000000E+00  0.00000000E+00
  0.00000000E+00  0.00000000E+00  0.00000000E+00
  0.00000000E+00  0.00000000E+00  0.00000000E+00
  0.00000000E+00  0.00000000E+00  0.00000000E+00
  0.00000000E+00  0.00000000E+00  0.00000000E+00
  0.00000000E+00  0.00000000E+00  0.00000000E+00
  0.00000000E+00  0.00000000E+00  0.00000000E+00
  0.00000000E+00  0.00000000E+00  0.00000000E+00
  0.00000000E+00  0.00000000E+00  0.00000000E+00
  0.00000000E+00  0.00000000E+00  0.00000000E+00
  0.00000000E+00  0.00000000E+00  0.00000000E+00
  0.00000000E+00  0.00000000E+00  0.00000000E+00
  0.00000000E+00  0.00000000E+00  0.00000000E+00
  0.00000000E+00  0.00000000E+00  0.00000000E+00
  0.00000000E+00  0.00000000E+00  0.00000000E+00
  0.00000000E+00  0.00000000E+00  0.00000000E+00
