Poscar file generated with pyiron       
   1.00000000000000     
     4.7794045208712603    0.0504821064019008    0.2512672182885263
    -0.1173777084135911   10.4691845048844332    0.1889261735204528
    -0.9333992000444775   -0.3299247138770885   17.7822358444356396
   Cs   I    Pb
     4    12     4
Direct
  0.6147005606692246  0.0002496992295930  0.3502154600658514
  0.1143011023260912  0.8369721250157468  0.6935863533653520
  0.6156653073878425  0.5003355356526790  0.1935591338146394
  0.1166974377231158  0.3370664877038317  0.8500679877885143
  0.6176670928810516  0.2581573003402828  0.0201999006080340
  0.1176609301958076  0.5804881207807707  0.0234332418226658
  0.6130987365654932  0.7575562503228854  0.5233506077685116
  0.1137248667170365  0.0800239461541495  0.5201802131125861
  0.1176668497027161  0.9539013799947599  0.9087201366726075
  0.6173081531821546  0.8849369910344682  0.1348884030910867
  0.1139329058563813  0.4532180912431544  0.6349288483871778
  0.6132260254151589  0.3843958698995692  0.4086387769924636
  0.1154117884119228  0.2174628910585540  0.2366833856105514
  0.6156584979269272  0.6199967917428536  0.8070489354643763
  0.1148328546036007  0.7175584041116654  0.3068199903662172
  0.6153837037242629  0.1199514558167406  0.7366064457903686
  0.1177994880449137  0.0791580581185615  0.0828601480739262
  0.6178978540004125  0.7592000340928480  0.9607130401071909
  0.1129338376118140  0.5787576622305457  0.4606668528977897
  0.6137168852691515  0.2589142349050303  0.5829304745440792
 
  0.00000000E+00  0.00000000E+00  0.00000000E+00
  0.00000000E+00  0.00000000E+00  0.00000000E+00
  0.00000000E+00  0.00000000E+00  0.00000000E+00
  0.00000000E+00  0.00000000E+00  0.00000000E+00
  0.00000000E+00  0.00000000E+00  0.00000000E+00
  0.00000000E+00  0.00000000E+00  0.00000000E+00
  0.00000000E+00  0.00000000E+00  0.00000000E+00
  0.00000000E+00  0.00000000E+00  0.00000000E+00
  0.00000000E+00  0.00000000E+00  0.00000000E+00
  0.00000000E+00  0.00000000E+00  0.00000000E+00
  0.00000000E+00  0.00000000E+00  0.00000000E+00
  0.00000000E+00  0.00000000E+00  0.00000000E+00
  0.00000000E+00  0.00000000E+00  0.00000000E+00
  0.00000000E+00  0.00000000E+00  0.00000000E+00
  0.00000000E+00  0.00000000E+00  0.00000000E+00
  0.00000000E+00  0.00000000E+00  0.00000000E+00
  0.00000000E+00  0.00000000E+00  0.00000000E+00
  0.00000000E+00  0.00000000E+00  0.00000000E+00
  0.00000000E+00  0.00000000E+00  0.00000000E+00
  0.00000000E+00  0.00000000E+00  0.00000000E+00
