Poscar file generated with pyiron       
   1.00000000000000     
     4.7807123017691842    0.0593245589111808    0.2322397727260379
    -0.1464442325137944   10.4680686871340445    0.2732336896671362
    -0.8508626516042274   -0.4746638637140949   17.7864008764411601
   Cs   I    Pb
     4    12     4
Direct
  0.6476502039656907  0.0149646363717977  0.3509774703565047
  0.1480823824923421  0.8522848155621975  0.6944124827804898
  0.6478328754264779  0.5151757064132947  0.1942633838622672
  0.1492707007492204  0.3524922433388837  0.8511408128530096
  0.6516876642840446  0.2728583932943799  0.0211705372879611
  0.1510950893287456  0.5952148950060905  0.0240923991316004
  0.6464372470680527  0.7720986979531891  0.5242645206864432
  0.1464375500157927  0.0945572295037894  0.5209848287994855
  0.1517519931959434  0.9686982234413317  0.9095104608212552
  0.6512528632495143  0.8991888097516465  0.1357969055597665
  0.1462075379027274  0.4676258829425008  0.6358452256777424
  0.6461438409155300  0.3987901889383428  0.4094964331547086
  0.1484171745903725  0.2323750687121469  0.2376859376345324
  0.6484136019409747  0.6352891731266092  0.8076713161936064
  0.1477583001348296  0.7319862322472814  0.3077016063002899
  0.6476576950211065  0.1352418200790192  0.7376964816568050
  0.1518622894827419  0.0936999302436801  0.0838988038097774
  0.6515580388030706  0.7742145756214591  0.9614076566120864
  0.1456474886012316  0.5931390971824010  0.4615424042514846
  0.6460017990152127  0.2734830392136501  0.5837798007784266
 
  0.00000000E+00  0.00000000E+00  0.00000000E+00
  0.00000000E+00  0.00000000E+00  0.00000000E+00
  0.00000000E+00  0.00000000E+00  0.00000000E+00
  0.00000000E+00  0.00000000E+00  0.00000000E+00
  0.00000000E+00  0.00000000E+00  0.00000000E+00
  0.00000000E+00  0.00000000E+00  0.00000000E+00
  0.00000000E+00  0.00000000E+00  0.00000000E+00
  0.00000000E+00  0.00000000E+00  0.00000000E+00
  0.00000000E+00  0.00000000E+00  0.00000000E+00
  0.00000000E+00  0.00000000E+00  0.00000000E+00
  0.00000000E+00  0.00000000E+00  0.00000000E+00
  0.00000000E+00  0.00000000E+00  0.00000000E+00
  0.00000000E+00  0.00000000E+00  0.00000000E+00
  0.00000000E+00  0.00000000E+00  0.00000000E+00
  0.00000000E+00  0.00000000E+00  0.00000000E+00
  0.00000000E+00  0.00000000E+00  0.00000000E+00
  0.00000000E+00  0.00000000E+00  0.00000000E+00
  0.00000000E+00  0.00000000E+00  0.00000000E+00
  0.00000000E+00  0.00000000E+00  0.00000000E+00
  0.00000000E+00  0.00000000E+00  0.00000000E+00
