Poscar file generated with pyiron       
   1.00000000000000     
     4.7820880643647259    0.0240658211586547    0.2036242150585384
    -0.0649152639424781   10.4639702372121040    0.2168819803038999
    -0.7552612621394890   -0.3841360538956807   17.7975796061697800
   Cs   I    Pb
     4    12     4
Direct
  0.6422548668833840  0.0696386737519864  0.3619034042744420
  0.1426247534822442  0.9046550745311518  0.7052869123687698
  0.6433295334068354  0.5707888585355763  0.2057134043659668
  0.1435307997159170  0.4063399522356526  0.8620163315668353
  0.6437639107064685  0.3291331826289920  0.0324174485402954
  0.1439813223576393  0.6513226200762644  0.0357444327927721
  0.6422204983345201  0.8252561580808067  0.5351519481754936
  0.1421739565108452  0.1470917815342276  0.5322202929416316
  0.1439526488493154  0.0244209935711341  0.9208886379071100
  0.6438699145968905 -0.0441807028295550  0.1470014742652647
  0.1424213808133015  0.5207916044785299  0.6468059073939065
  0.6421983321782925  0.4517284032999882  0.4209173692674698
  0.1432139210670922  0.2884429849604954  0.2491279481170716
  0.6433862204584082  0.6892226437740744  0.8194770575703126
  0.1425082359894489  0.7864506861274390  0.3193615049086342
  0.6430417065596145  0.1877580640924864  0.7487429234747153
  0.1440249839576443  0.1502197220767033  0.0951789215479013
  0.6442812143628109  0.8297958736705594  0.9728239279532193
  0.1422481241203819  0.6463017219005709  0.4727498900527853
  0.6424734471681234  0.3261232130874149  0.5949412136455610
 
  0.00000000E+00  0.00000000E+00  0.00000000E+00
  0.00000000E+00  0.00000000E+00  0.00000000E+00
  0.00000000E+00  0.00000000E+00  0.00000000E+00
  0.00000000E+00  0.00000000E+00  0.00000000E+00
  0.00000000E+00  0.00000000E+00  0.00000000E+00
  0.00000000E+00  0.00000000E+00  0.00000000E+00
  0.00000000E+00  0.00000000E+00  0.00000000E+00
  0.00000000E+00  0.00000000E+00  0.00000000E+00
  0.00000000E+00  0.00000000E+00  0.00000000E+00
  0.00000000E+00  0.00000000E+00  0.00000000E+00
  0.00000000E+00  0.00000000E+00  0.00000000E+00
  0.00000000E+00  0.00000000E+00  0.00000000E+00
  0.00000000E+00  0.00000000E+00  0.00000000E+00
  0.00000000E+00  0.00000000E+00  0.00000000E+00
  0.00000000E+00  0.00000000E+00  0.00000000E+00
  0.00000000E+00  0.00000000E+00  0.00000000E+00
  0.00000000E+00  0.00000000E+00  0.00000000E+00
  0.00000000E+00  0.00000000E+00  0.00000000E+00
  0.00000000E+00  0.00000000E+00  0.00000000E+00
  0.00000000E+00  0.00000000E+00  0.00000000E+00
