Poscar file generated with pyiron       
   1.00000000000000     
     4.7847812382735926    0.0934460554707707    0.1290205047043662
    -0.2161031263753145   10.4624410153821135    0.3359702195909693
    -0.4634185309541243   -0.5774765125967540   17.8055194405539297
   Cs   I    Pb
     4    12     4
Direct
  0.6375853730671516  0.0475559312153025  0.3692401903284597
  0.1390698132550804  0.8842369835109284  0.7128406267134363
  0.6357597532292107  0.5466780617540989  0.2126188648275293
  0.1370291283829163  0.3835902942858818  0.8690545128402407
  0.6345933761340148  0.3034669087183827  0.0390427118396913
  0.1357112669829903  0.6252265460451824  0.0425803684931475
  0.6412203249210875  0.8056219150170403  0.5424587843598160
  0.1427066864235778  0.1277851176720719  0.5395321992838363
  0.1363194656417541 -0.0010489756026861  0.9280524510490612
  0.6336581309879394  0.9304023360630956  0.1539916211943094
  0.1428301041878982  0.5013514985539274  0.6540473039454947
  0.6413751943880334  0.4318738831016737  0.4280017954002713
  0.1353831812526726  0.2640020843179598  0.2556601919192880
  0.6377902225175510  0.6664945214882942  0.8261273817609037
  0.1365990958023319  0.7646390428394553  0.3259483340152747
  0.6394618298698620  0.1669481765505812  0.7556386019911865
  0.1338042040099695  0.1247442541079153  0.1019953482194412
  0.6359180943461633  0.8044304601518733  0.9800447082832923
  0.1411302141067589  0.6264938784335752  0.4798638006767627
  0.6437746694214591  0.3066956738973552  0.6021445788510099
 
  0.00000000E+00  0.00000000E+00  0.00000000E+00
  0.00000000E+00  0.00000000E+00  0.00000000E+00
  0.00000000E+00  0.00000000E+00  0.00000000E+00
  0.00000000E+00  0.00000000E+00  0.00000000E+00
  0.00000000E+00  0.00000000E+00  0.00000000E+00
  0.00000000E+00  0.00000000E+00  0.00000000E+00
  0.00000000E+00  0.00000000E+00  0.00000000E+00
  0.00000000E+00  0.00000000E+00  0.00000000E+00
  0.00000000E+00  0.00000000E+00  0.00000000E+00
  0.00000000E+00  0.00000000E+00  0.00000000E+00
  0.00000000E+00  0.00000000E+00  0.00000000E+00
  0.00000000E+00  0.00000000E+00  0.00000000E+00
  0.00000000E+00  0.00000000E+00  0.00000000E+00
  0.00000000E+00  0.00000000E+00  0.00000000E+00
  0.00000000E+00  0.00000000E+00  0.00000000E+00
  0.00000000E+00  0.00000000E+00  0.00000000E+00
  0.00000000E+00  0.00000000E+00  0.00000000E+00
  0.00000000E+00  0.00000000E+00  0.00000000E+00
  0.00000000E+00  0.00000000E+00  0.00000000E+00
  0.00000000E+00  0.00000000E+00  0.00000000E+00
