Poscar file generated with pyiron       
   1.00000000000000     
     4.7832638551241349    0.0126898881540971    0.1679898636702895
    -0.0347393419640592   10.4684205112737150    0.2072246234457660
    -0.6181384205859274   -0.3596805669205264   17.8065069177027482
   Cs   I    Pb
     4    12     4
Direct
  0.6564029641037169  0.0622445521819554  0.3664805531144718
  0.1565556386950775  0.8992930032970995  0.7099391262673134
  0.6569941683399585  0.5624821020712836  0.2098878353173064
  0.1575077035232491  0.3994715247022651  0.8665217677880837
  0.6574193831623488  0.3200419117934959  0.0367686973402205
  0.1574058059906905  0.6423019419838357  0.0397999476845144
  0.6553084680180445  0.8191160892371404  0.5397196635453038
  0.1552755939759398  0.1414529088575458  0.5367252199550299
  0.1573189757334520  0.0157777672962066  0.9251626447335886
  0.6573879183766573  0.9464844534727016  0.1513028351953088
  0.1552399229880544  0.5149402076783882  0.6512508076464232
  0.6551139545309020  0.4459015433658889  0.4251215338992111
  0.1564670254873405  0.2795930941841574  0.2531460408446811
  0.6567457028638286  0.6823967026158423  0.8233570988791292
  0.1566154162360800  0.7793716313460338  0.3233906248106341
  0.6566999989564767  0.1821327023396089  0.7532600168580375
  0.1574288258564653  0.1410179581982877  0.0993685607809732
  0.6572116667027169  0.8212717525153674  0.9770904709867968
  0.1551279877824099  0.6402110173111734  0.4770316684163950
  0.6553479227035907  0.3205594330759245  0.5993845171608407
 
  0.00000000E+00  0.00000000E+00  0.00000000E+00
  0.00000000E+00  0.00000000E+00  0.00000000E+00
  0.00000000E+00  0.00000000E+00  0.00000000E+00
  0.00000000E+00  0.00000000E+00  0.00000000E+00
  0.00000000E+00  0.00000000E+00  0.00000000E+00
  0.00000000E+00  0.00000000E+00  0.00000000E+00
  0.00000000E+00  0.00000000E+00  0.00000000E+00
  0.00000000E+00  0.00000000E+00  0.00000000E+00
  0.00000000E+00  0.00000000E+00  0.00000000E+00
  0.00000000E+00  0.00000000E+00  0.00000000E+00
  0.00000000E+00  0.00000000E+00  0.00000000E+00
  0.00000000E+00  0.00000000E+00  0.00000000E+00
  0.00000000E+00  0.00000000E+00  0.00000000E+00
  0.00000000E+00  0.00000000E+00  0.00000000E+00
  0.00000000E+00  0.00000000E+00  0.00000000E+00
  0.00000000E+00  0.00000000E+00  0.00000000E+00
  0.00000000E+00  0.00000000E+00  0.00000000E+00
  0.00000000E+00  0.00000000E+00  0.00000000E+00
  0.00000000E+00  0.00000000E+00  0.00000000E+00
  0.00000000E+00  0.00000000E+00  0.00000000E+00
