Poscar file generated with pyiron       
   1.00000000000000     
     4.7869887622662812   -0.0413357342055421   -0.0895076174886229
     0.0947587396177867   10.4673182498678639    0.2438093044629973
     0.3238983327014051   -0.4176909510426777   17.8044464684790249
   Cs   I    Pb
     4    12     4
Direct
  0.6614505462078363  0.0147166797021103  0.3352491000541516
  0.1604013838434423  0.8507197658045887  0.6788285798776273
  0.6593437847039951  0.5160433471313607  0.1788049177737790
  0.1591490463686919  0.3519232597999823  0.8352268896909077
  0.6573696406033624  0.2743194344745937  0.0054154805118331
  0.1572739857606603  0.5961898314681435  0.0088573091768060
  0.6634362971246232  0.7704803476373950  0.5088437709332556
  0.1634250382796133  0.0923981353517824  0.5053942964131189
  0.1570938861166027 -0.0307386078780913  0.8939949651417415
  0.6574286966321937  0.9008231179945466  0.1202073751296457
  0.1636543021977325  0.4659345064110881  0.6201605413687744
  0.6634568050906855  0.3973658730064218  0.3939975010599769
  0.1600859362575908  0.2331826853067246  0.2220854531559534
  0.6597261225897501  0.6348773409583273  0.7926231486937338
  0.1608825217576076  0.7318211333094323  0.2925898832302219
  0.6604220795962661  0.1335051776993060  0.7220763746928062
  0.1570760600468669  0.0952263091647371  0.0680728499623933
  0.6568302204724163  0.7749980877968685  0.9461795043969629
  0.1638968794245438  0.5916657878460709  0.4461564187747843
  0.6638393660233243  0.2715024435260046  0.5680261031727450
 
  0.00000000E+00  0.00000000E+00  0.00000000E+00
  0.00000000E+00  0.00000000E+00  0.00000000E+00
  0.00000000E+00  0.00000000E+00  0.00000000E+00
  0.00000000E+00  0.00000000E+00  0.00000000E+00
  0.00000000E+00  0.00000000E+00  0.00000000E+00
  0.00000000E+00  0.00000000E+00  0.00000000E+00
  0.00000000E+00  0.00000000E+00  0.00000000E+00
  0.00000000E+00  0.00000000E+00  0.00000000E+00
  0.00000000E+00  0.00000000E+00  0.00000000E+00
  0.00000000E+00  0.00000000E+00  0.00000000E+00
  0.00000000E+00  0.00000000E+00  0.00000000E+00
  0.00000000E+00  0.00000000E+00  0.00000000E+00
  0.00000000E+00  0.00000000E+00  0.00000000E+00
  0.00000000E+00  0.00000000E+00  0.00000000E+00
  0.00000000E+00  0.00000000E+00  0.00000000E+00
  0.00000000E+00  0.00000000E+00  0.00000000E+00
  0.00000000E+00  0.00000000E+00  0.00000000E+00
  0.00000000E+00  0.00000000E+00  0.00000000E+00
  0.00000000E+00  0.00000000E+00  0.00000000E+00
  0.00000000E+00  0.00000000E+00  0.00000000E+00
