Poscar file generated with pyiron       
   1.00000000000000     
     4.7844770058365080    0.0503500526670459    0.0944856168449447
    -0.1151861928879708   10.4638708264141282    0.1884439566979306
    -0.3527496096837665   -0.3232164694582920   17.8022639230802895
   Cs   I    Pb
     4    12     4
Direct
  0.6938731188743632 -0.0139435400207404  0.3309238776805611
  0.1949852047811783  0.8229415842206468  0.6744551101028633
  0.6961030417536126  0.4862842387749561  0.1744682253742819
  0.1975112597719337  0.3230703474450530  0.8309380646661224
  0.7000661704181410  0.2438030673382895  0.0009693513085835
  0.1999848968230512  0.5660043329298864  0.0042931004538882
  0.6913874374605221  0.7432833759440292  0.5044070353544979
  0.1916490037101645  0.0654084685982347  0.5011318216073876
  0.2002496109111904  0.9393260128288629  0.8895989061188643
  0.7000385513994842  0.8704759953348784  0.1156875212972199
  0.1917014487237951  0.4388494421876505  0.6157470598368796
  0.6910819226303568  0.3700199315787437  0.3896946126634809
  0.1953672240747072  0.2034294196962843  0.2175213673597594
  0.6965875272654585  0.6059512993918351  0.7878861240827136
  0.1942816350839878  0.7033640120335172  0.2879233585649317
  0.6959199529772493  0.1057646968155681  0.7175716100701126
  0.2002713185142033  0.0648956640818753  0.0637221081468627
  0.7002395685752738  0.7448812964256663  0.9415540941420478
  0.1909614521245900  0.5644808098629738  0.4416157564753315
  0.6915915923188469  0.2443187534931888  0.5638612214361467
 
  0.00000000E+00  0.00000000E+00  0.00000000E+00
  0.00000000E+00  0.00000000E+00  0.00000000E+00
  0.00000000E+00  0.00000000E+00  0.00000000E+00
  0.00000000E+00  0.00000000E+00  0.00000000E+00
  0.00000000E+00  0.00000000E+00  0.00000000E+00
  0.00000000E+00  0.00000000E+00  0.00000000E+00
  0.00000000E+00  0.00000000E+00  0.00000000E+00
  0.00000000E+00  0.00000000E+00  0.00000000E+00
  0.00000000E+00  0.00000000E+00  0.00000000E+00
  0.00000000E+00  0.00000000E+00  0.00000000E+00
  0.00000000E+00  0.00000000E+00  0.00000000E+00
  0.00000000E+00  0.00000000E+00  0.00000000E+00
  0.00000000E+00  0.00000000E+00  0.00000000E+00
  0.00000000E+00  0.00000000E+00  0.00000000E+00
  0.00000000E+00  0.00000000E+00  0.00000000E+00
  0.00000000E+00  0.00000000E+00  0.00000000E+00
  0.00000000E+00  0.00000000E+00  0.00000000E+00
  0.00000000E+00  0.00000000E+00  0.00000000E+00
  0.00000000E+00  0.00000000E+00  0.00000000E+00
  0.00000000E+00  0.00000000E+00  0.00000000E+00
