Poscar file generated with pyiron       
   1.00000000000000     
     4.7793539114508006    0.0635108302769049   -0.1956762718214731
    -0.1272611453320550   10.4696677320240479    0.1922596406933055
     0.7287401664154726   -0.3151679946003805   17.7813942943095924
   Cs   I    Pb
     4    12     4
Direct
  0.6633691367957787  0.0269229369490422  0.3516768121116738
  0.1612069927392457  0.8651437712019752  0.6950859815089107
  0.6599293879214491  0.5277093210890681  0.1951174408670364
  0.1582097003579052  0.3657706985320894  0.8516976030648994
  0.6549184482596718  0.2862244282191967  0.0220250726481883
  0.1549220823810735  0.6086312660252872  0.0249198529708953
  0.6658055132600066  0.7841595691866395  0.5250621588927981
  0.1659241868012256  0.1065793230036194  0.5218175585771843
  0.1545691335643486 -0.0181497349864213  0.9102752193434918
  0.6548454654668475  0.9126463329111829  0.1365023359685833
  0.1658656731619075  0.4799071117018153  0.6365008812110122
  0.6660858053368025  0.4110595975586148  0.4103153249090312
  0.1612048780711564  0.2449977600805441  0.2386132661278795
  0.6589153997972339  0.6484504371723186  0.8084552147244206
  0.1620925679633622  0.7442371641719421  0.3085669195461658
  0.6599560591958512  0.1477985781635636  0.7384767708506522
  0.1546629258781225  0.1070567623647608  0.0845794964484355
  0.6543249343226303  0.7874761847120098  0.9622371546687156
  0.1663142256835318  0.6052505669285128  0.4623502218718745
  0.6662511311727978  0.2855609439459781  0.5845043708923950
 
  0.00000000E+00  0.00000000E+00  0.00000000E+00
  0.00000000E+00  0.00000000E+00  0.00000000E+00
  0.00000000E+00  0.00000000E+00  0.00000000E+00
  0.00000000E+00  0.00000000E+00  0.00000000E+00
  0.00000000E+00  0.00000000E+00  0.00000000E+00
  0.00000000E+00  0.00000000E+00  0.00000000E+00
  0.00000000E+00  0.00000000E+00  0.00000000E+00
  0.00000000E+00  0.00000000E+00  0.00000000E+00
  0.00000000E+00  0.00000000E+00  0.00000000E+00
  0.00000000E+00  0.00000000E+00  0.00000000E+00
  0.00000000E+00  0.00000000E+00  0.00000000E+00
  0.00000000E+00  0.00000000E+00  0.00000000E+00
  0.00000000E+00  0.00000000E+00  0.00000000E+00
  0.00000000E+00  0.00000000E+00  0.00000000E+00
  0.00000000E+00  0.00000000E+00  0.00000000E+00
  0.00000000E+00  0.00000000E+00  0.00000000E+00
  0.00000000E+00  0.00000000E+00  0.00000000E+00
  0.00000000E+00  0.00000000E+00  0.00000000E+00
  0.00000000E+00  0.00000000E+00  0.00000000E+00
  0.00000000E+00  0.00000000E+00  0.00000000E+00
