Poscar file generated with pyiron       
   1.00000000000000     
     4.7873246562736362   -0.0607679376637628    0.1219116757007137
     0.1196406673922844   10.4773477160789295    0.2300688287222213
    -0.4603663331304728   -0.3830708042957038   17.8078210472478737
   Cs   I    Pb
     4    12     4
Direct
  0.6145616172581938  0.0567067738972394  0.3670390529163068
  0.1157361671281616  0.8948067367224587  0.7103894780356643
  0.6118314569027620  0.5550893641144753  0.2101325978862835
  0.1132512890110701  0.3930154640400282  0.8668162460873000
  0.6102863040137576  0.3112148245761164  0.0368453671788404
  0.1103444696013588  0.6339342407472697  0.0398768503220651
  0.6179117551292974  0.8163473279909533  0.5403760332595997
  0.1176252439650861  0.1388212445959311  0.5367703282190637
  0.1106956604940318  0.0076280728181459  0.9256644623764539
  0.6098428616739596  0.9384684408447008  0.1516833307045553
  0.1179347065492999  0.5114722073908438  0.6517378702773969
  0.6177724635907529  0.4430079608929842  0.4256812654758964
  0.1128384302164153  0.2725949813717367  0.2534454668609922
  0.6138059406914157  0.6760042286429772  0.8232121167341410
  0.1139356333095872  0.7740258078090767  0.3232950303023135
  0.6151505082803160  0.1772842511759386  0.7532209093302830
  0.1097716318713849  0.1327836367087706  0.0998536665675129
  0.6104371316960031  0.8131265221755781  0.9773450043743031
  0.1180135091079101  0.6373675784739257  0.4775004351778698
  0.6180514097355593  0.3172496218139559  0.5997703263877342
 
  0.00000000E+00  0.00000000E+00  0.00000000E+00
  0.00000000E+00  0.00000000E+00  0.00000000E+00
  0.00000000E+00  0.00000000E+00  0.00000000E+00
  0.00000000E+00  0.00000000E+00  0.00000000E+00
  0.00000000E+00  0.00000000E+00  0.00000000E+00
  0.00000000E+00  0.00000000E+00  0.00000000E+00
  0.00000000E+00  0.00000000E+00  0.00000000E+00
  0.00000000E+00  0.00000000E+00  0.00000000E+00
  0.00000000E+00  0.00000000E+00  0.00000000E+00
  0.00000000E+00  0.00000000E+00  0.00000000E+00
  0.00000000E+00  0.00000000E+00  0.00000000E+00
  0.00000000E+00  0.00000000E+00  0.00000000E+00
  0.00000000E+00  0.00000000E+00  0.00000000E+00
  0.00000000E+00  0.00000000E+00  0.00000000E+00
  0.00000000E+00  0.00000000E+00  0.00000000E+00
  0.00000000E+00  0.00000000E+00  0.00000000E+00
  0.00000000E+00  0.00000000E+00  0.00000000E+00
  0.00000000E+00  0.00000000E+00  0.00000000E+00
  0.00000000E+00  0.00000000E+00  0.00000000E+00
  0.00000000E+00  0.00000000E+00  0.00000000E+00
