Poscar file generated with pyiron       
   1.00000000000000     
     4.7838457065084716    0.0660343900902614   -0.1807484595769168
    -0.1391365887765948   10.4759415635044828    0.1969064415698064
     0.6865780501521338   -0.3249100005705747   17.7994430711370697
   Cs   I    Pb
     4    12     4
Direct
  0.6653497225122077  0.0276560384618192  0.3474655682779553
  0.1651799192748593  0.8661836386978220  0.6908598260708055
  0.6625237257328429  0.5290338643123768  0.1907480831658733
  0.1627876497743024  0.3669254715008854  0.8475410230777289
  0.6579786290046806  0.2874508837814250  0.0177995663979988
  0.1583831184215229  0.6099489155067893  0.0205618389945106
  0.6678983681844127  0.7847821034586219  0.5209188930920076
  0.1674972158658309  0.1070989570742710  0.5176118088915701
  0.1583520106037284  0.9834476007574732  0.9061591007524352
  0.6578008425758295  0.9137553916984341  0.1322148810932848
  0.1675291429238229  0.4806171341834984  0.6322911362972337
  0.6675900184846798  0.4115407350869317  0.4061786247584963
  0.1634049444603711  0.2461024199681410  0.2345708513392557
  0.6635254635001556  0.6496636485741011  0.8042157687743257
  0.1644635364156052  0.7449089171539249  0.3044275797682406
  0.6643969567920398  0.1487673602717932  0.7344869790916421
  0.1575214126509689  0.1084406348760145  0.0805434367675025
  0.6579028725063991  0.7889410347497466  0.9578809857624957
  0.1681267115196368  0.6058152217580108  0.4582002570961015
  0.6675853959146162  0.2861403965943176  0.5803515398797914
 
  0.00000000E+00  0.00000000E+00  0.00000000E+00
  0.00000000E+00  0.00000000E+00  0.00000000E+00
  0.00000000E+00  0.00000000E+00  0.00000000E+00
  0.00000000E+00  0.00000000E+00  0.00000000E+00
  0.00000000E+00  0.00000000E+00  0.00000000E+00
  0.00000000E+00  0.00000000E+00  0.00000000E+00
  0.00000000E+00  0.00000000E+00  0.00000000E+00
  0.00000000E+00  0.00000000E+00  0.00000000E+00
  0.00000000E+00  0.00000000E+00  0.00000000E+00
  0.00000000E+00  0.00000000E+00  0.00000000E+00
  0.00000000E+00  0.00000000E+00  0.00000000E+00
  0.00000000E+00  0.00000000E+00  0.00000000E+00
  0.00000000E+00  0.00000000E+00  0.00000000E+00
  0.00000000E+00  0.00000000E+00  0.00000000E+00
  0.00000000E+00  0.00000000E+00  0.00000000E+00
  0.00000000E+00  0.00000000E+00  0.00000000E+00
  0.00000000E+00  0.00000000E+00  0.00000000E+00
  0.00000000E+00  0.00000000E+00  0.00000000E+00
  0.00000000E+00  0.00000000E+00  0.00000000E+00
  0.00000000E+00  0.00000000E+00  0.00000000E+00
