Poscar file generated with pyiron       
   1.00000000000000     
     4.7813454264826856    0.0871017331301492    0.1746088438061125
    -0.1861706241637807   10.4704845301859955    0.2294557914976323
    -0.6446638888266788   -0.3967989825413552   17.7866608363287853
   Cs   I    Pb
     4    12     4
Direct
  0.7640025875136136  0.1106009059429418  0.3502987899120872
  0.2602641797678629  0.9503471456431499  0.6933626468079184
  0.7634414711663630  0.6127270149891625  0.1932022763492494
  0.2598948426366502  0.4515985165885646  0.8500153338082559
  0.7623999524452720  0.3719472861844946  0.0203258300860432
  0.2605330193067385  0.6948899351933098  0.0231665055300764
  0.7633996471296107  0.8673342354827434  0.5237298937726458
  0.2627595929133224  0.1902325482315795  0.5204210462436661
  0.2600031749747435  0.0679076750908657  0.9085882023329632
  0.7626227517833724 -0.0018700635940819  0.1346840303961296
  0.2621294025098331  0.5637048602274892  0.6349587380464640
  0.7640026430388323  0.4945153755491096  0.4087816267278992
  0.2636095102269927  0.3295853388018003  0.2371848363167586
  0.7597238004159285  0.7341178344102237  0.8067043534935991
  0.2637813089564446  0.8280810206020570  0.3071906608761373
  0.7597858209084619  0.2328001080962501  0.7373090511759035
  0.2630375935786540  0.1927532477005028  0.0830051117940992
  0.7598348194153948  0.8736769312762931  0.9602879291385864
  0.2639328412815409  0.6886380925038468  0.4608769870957261
  0.7620842618007136  0.3694262532908685  0.5831288525139308
 
  0.00000000E+00  0.00000000E+00  0.00000000E+00
  0.00000000E+00  0.00000000E+00  0.00000000E+00
  0.00000000E+00  0.00000000E+00  0.00000000E+00
  0.00000000E+00  0.00000000E+00  0.00000000E+00
  0.00000000E+00  0.00000000E+00  0.00000000E+00
  0.00000000E+00  0.00000000E+00  0.00000000E+00
  0.00000000E+00  0.00000000E+00  0.00000000E+00
  0.00000000E+00  0.00000000E+00  0.00000000E+00
  0.00000000E+00  0.00000000E+00  0.00000000E+00
  0.00000000E+00  0.00000000E+00  0.00000000E+00
  0.00000000E+00  0.00000000E+00  0.00000000E+00
  0.00000000E+00  0.00000000E+00  0.00000000E+00
  0.00000000E+00  0.00000000E+00  0.00000000E+00
  0.00000000E+00  0.00000000E+00  0.00000000E+00
  0.00000000E+00  0.00000000E+00  0.00000000E+00
  0.00000000E+00  0.00000000E+00  0.00000000E+00
  0.00000000E+00  0.00000000E+00  0.00000000E+00
  0.00000000E+00  0.00000000E+00  0.00000000E+00
  0.00000000E+00  0.00000000E+00  0.00000000E+00
  0.00000000E+00  0.00000000E+00  0.00000000E+00
