Poscar file generated with pyiron       
   1.00000000000000     
     4.7894474131866813    0.0070311229459157    0.1167649915800039
    -0.0321024049670164   10.4526860205472598    0.4230643910343378
    -0.4309630977245266   -0.7065513191827132   17.7906334410230826
   Cs   I    Pb
     4    12     4
Direct
  0.6802972514470185  0.0108654067090976  0.3477247553928948
  0.1870656045104284  0.8476272437422077  0.6908982493092206
  0.6820631431775580  0.5113175137614756  0.1911509772378266
  0.1888314421134767  0.3480657008831583  0.8477196533498561
  0.6854447882488272  0.2683469019973869  0.0179630279763735
  0.1853849437144682  0.5904713231413478  0.0206836833789854
  0.6822755785222305  0.7672443784637356  0.5212003666816279
  0.1817122992045947  0.0890662247607492  0.5180470798051986
  0.1864601276200574 -0.0358901853557654  0.9065425452626290
  0.6848990944580520  0.8948741671084285  0.1325621147404831
  0.1824094327312284  0.4623650285051974  0.6327210419529308
  0.6818775325204347  0.3943136063066004  0.4066364724235942
  0.1806869704191974  0.2284632109301404  0.2343112614917818
  0.6884369814687217  0.6311160245786713  0.8043950081326389
  0.1808944201130597  0.7277955977646737  0.3049119154864134
  0.6873630257219810  0.1297900908777697  0.7347637072649558
  0.1856311821815601  0.0892116299948273  0.0806812330301138
  0.6862013016880956  0.7696237857781864  0.9581714849371509
  0.1823027324661680  0.5884875603216685  0.4586401754229248
  0.6823160398250497  0.2678777488788586  0.5807422878667328
 
  0.00000000E+00  0.00000000E+00  0.00000000E+00
  0.00000000E+00  0.00000000E+00  0.00000000E+00
  0.00000000E+00  0.00000000E+00  0.00000000E+00
  0.00000000E+00  0.00000000E+00  0.00000000E+00
  0.00000000E+00  0.00000000E+00  0.00000000E+00
  0.00000000E+00  0.00000000E+00  0.00000000E+00
  0.00000000E+00  0.00000000E+00  0.00000000E+00
  0.00000000E+00  0.00000000E+00  0.00000000E+00
  0.00000000E+00  0.00000000E+00  0.00000000E+00
  0.00000000E+00  0.00000000E+00  0.00000000E+00
  0.00000000E+00  0.00000000E+00  0.00000000E+00
  0.00000000E+00  0.00000000E+00  0.00000000E+00
  0.00000000E+00  0.00000000E+00  0.00000000E+00
  0.00000000E+00  0.00000000E+00  0.00000000E+00
  0.00000000E+00  0.00000000E+00  0.00000000E+00
  0.00000000E+00  0.00000000E+00  0.00000000E+00
  0.00000000E+00  0.00000000E+00  0.00000000E+00
  0.00000000E+00  0.00000000E+00  0.00000000E+00
  0.00000000E+00  0.00000000E+00  0.00000000E+00
  0.00000000E+00  0.00000000E+00  0.00000000E+00
