Poscar file generated with pyiron       
   1.00000000000000     
     4.7868088895388379    0.0461103965270372    0.1111456297265900
    -0.0975096377027656   10.4679085430839933    0.2662941753223211
    -0.4101485167200715   -0.4494940443360337   17.7944547496844976
   Cs   I    Pb
     4    12     4
Direct
  0.7245869495855463 -0.0086598815482452  0.3342334518161328
  0.2243719758765335  0.8279851919465303  0.6779008627719131
  0.7270574124193890  0.4909521664195121  0.1778004077998943
  0.2271191182034736  0.3274967779109380  0.8343719733648388
  0.7316578558723523  0.2475410344920508  0.0042142924593848
  0.2315683335577238  0.5694376409418132  0.0075993340279673
  0.7211386118071034  0.7487941836620166  0.5077888879770135
  0.2207537314929402  0.0708804385802252  0.5043920167976159
  0.2317844022935268  0.9430118193938645  0.8928473540980657
  0.7314986545337082  0.8740671907225623  0.1191128991335707
  0.2207179008845742  0.4440945132470893  0.6191213088441992
  0.7202110035514392  0.3754170199815109  0.3930500550821492
  0.2265240229412850  0.2079666526668397  0.2205970780450530
  0.7266502122112337  0.6101690653901444  0.7909698344303857
  0.2254189128211129  0.7083019004115858  0.2913233853852059
  0.7251654962707881  0.1107391946344859  0.7208289234426509
  0.2320507568787857  0.0685436531636131  0.0671162371365634
  0.7320842600628185  0.7485027574951715  0.9448099378621529
  0.2202091670532587  0.5699264189728885  0.4451320243996142
  0.7204490860945787  0.2496369670728924  0.5670347388803947
 
  0.00000000E+00  0.00000000E+00  0.00000000E+00
  0.00000000E+00  0.00000000E+00  0.00000000E+00
  0.00000000E+00  0.00000000E+00  0.00000000E+00
  0.00000000E+00  0.00000000E+00  0.00000000E+00
  0.00000000E+00  0.00000000E+00  0.00000000E+00
  0.00000000E+00  0.00000000E+00  0.00000000E+00
  0.00000000E+00  0.00000000E+00  0.00000000E+00
  0.00000000E+00  0.00000000E+00  0.00000000E+00
  0.00000000E+00  0.00000000E+00  0.00000000E+00
  0.00000000E+00  0.00000000E+00  0.00000000E+00
  0.00000000E+00  0.00000000E+00  0.00000000E+00
  0.00000000E+00  0.00000000E+00  0.00000000E+00
  0.00000000E+00  0.00000000E+00  0.00000000E+00
  0.00000000E+00  0.00000000E+00  0.00000000E+00
  0.00000000E+00  0.00000000E+00  0.00000000E+00
  0.00000000E+00  0.00000000E+00  0.00000000E+00
  0.00000000E+00  0.00000000E+00  0.00000000E+00
  0.00000000E+00  0.00000000E+00  0.00000000E+00
  0.00000000E+00  0.00000000E+00  0.00000000E+00
  0.00000000E+00  0.00000000E+00  0.00000000E+00
