Poscar file generated with pyiron       
   1.00000000000000     
     4.7788918861268037    0.0315718080942415    0.1896721390790172
    -0.0794943758475708   10.4696167989052036    0.2957336947708659
    -0.7026977474244698   -0.5017179792162474   17.7847057258143657
   Cs   I    Pb
     4    12     4
Direct
  0.7500669733294607  0.1050218419830989  0.3407018515683160
  0.2457668055494940  0.9446186475115548  0.6836892385545529
  0.7506801950508034  0.6054618881662674  0.1838785196346965
  0.2470209526000434  0.4453397183642296  0.8406902148153919
  0.7510661565648231  0.3643833623893301  0.0108819779306364
  0.2507502919376685  0.6872736902595358  0.0137987625601831
  0.7453666582225110  0.8630159761888044  0.5137189366381182
  0.2449073584792418  0.1860075715391401  0.5108169516482640
  0.2510825733617911  0.0607362734299158  0.8992658466479652
  0.7517946084491549  0.9906451171512742  0.1253608847139682
  0.2447377043184627  0.5594193152301975  0.6254089216891885
  0.7454853584165357  0.4895750446258757  0.3992041015158803
  0.2508636202935307  0.3226719362585472  0.2275959352596552
  0.7464934429219209  0.7280289847056184  0.7971758296118352
  0.2499329108388914  0.8224701804075463  0.2972125649932362
  0.7459565306000095  0.2269723412455110  0.7275736634150700
  0.2517431858459350  0.1851306215339096  0.0735360878210867
  0.7507428263078505  0.8663590026291429  0.9510834896164020
  0.2452124593363108  0.6839168686511373  0.4510631965817797
  0.7443250841300582  0.3649669581874412  0.5736082004431274
 
  0.00000000E+00  0.00000000E+00  0.00000000E+00
  0.00000000E+00  0.00000000E+00  0.00000000E+00
  0.00000000E+00  0.00000000E+00  0.00000000E+00
  0.00000000E+00  0.00000000E+00  0.00000000E+00
  0.00000000E+00  0.00000000E+00  0.00000000E+00
  0.00000000E+00  0.00000000E+00  0.00000000E+00
  0.00000000E+00  0.00000000E+00  0.00000000E+00
  0.00000000E+00  0.00000000E+00  0.00000000E+00
  0.00000000E+00  0.00000000E+00  0.00000000E+00
  0.00000000E+00  0.00000000E+00  0.00000000E+00
  0.00000000E+00  0.00000000E+00  0.00000000E+00
  0.00000000E+00  0.00000000E+00  0.00000000E+00
  0.00000000E+00  0.00000000E+00  0.00000000E+00
  0.00000000E+00  0.00000000E+00  0.00000000E+00
  0.00000000E+00  0.00000000E+00  0.00000000E+00
  0.00000000E+00  0.00000000E+00  0.00000000E+00
  0.00000000E+00  0.00000000E+00  0.00000000E+00
  0.00000000E+00  0.00000000E+00  0.00000000E+00
  0.00000000E+00  0.00000000E+00  0.00000000E+00
  0.00000000E+00  0.00000000E+00  0.00000000E+00
