Poscar file generated with pyiron       
   1.00000000000000     
     4.7885360659731520    0.0650654766786828    0.1067786965359266
    -0.1521893290959869   10.4565630116940387    0.3922523251945240
    -0.3911729029099116   -0.6741902402188752   17.7976140923199502
   Cs   I    Pb
     4    12     4
Direct
  0.6689729362756198  0.0109218674601658  0.3394524372065257
  0.1725391771323532  0.8449520296343942  0.6833699547992187
  0.6695087903348819  0.5127865897579021  0.1833284496785591
  0.1724042144826575  0.3461137288220933  0.8395846603217679
  0.6705015285327499  0.2697146756465089  0.0098687482368173
  0.1704324951382141  0.5912670275367440  0.0130298038891531
  0.6701260189778037  0.7655673830213591  0.5135198597914676
  0.1702891212659152  0.0870141230765760  0.5098395390117234
  0.1703748043214949 -0.0355844045505408  0.8982662590974290
  0.6704418397014341  0.8961154554550524  0.1244675591621917
  0.1705510952287177  0.4604713600619884  0.6245885341255639
  0.6697320410199374  0.3929193097342993  0.3983881671278278
  0.1693795092205410  0.2295142673669902  0.2262075789121267
  0.6724774617776658  0.6292048219510148  0.7970161846168634
  0.1690645578442346  0.7280672754896640  0.2974972431326681
  0.6722994330178658  0.1280226843018157  0.7262883841590240
  0.1703210088062144  0.0907503202731980  0.0724817807179163
  0.6705066786063263  0.7699526552999776  0.9502991451424475
  0.1695065258148987  0.5870425409901617  0.4507531191229807
  0.6704146053459779  0.2661226459708113  0.5723911036697029
 
  0.00000000E+00  0.00000000E+00  0.00000000E+00
  0.00000000E+00  0.00000000E+00  0.00000000E+00
  0.00000000E+00  0.00000000E+00  0.00000000E+00
  0.00000000E+00  0.00000000E+00  0.00000000E+00
  0.00000000E+00  0.00000000E+00  0.00000000E+00
  0.00000000E+00  0.00000000E+00  0.00000000E+00
  0.00000000E+00  0.00000000E+00  0.00000000E+00
  0.00000000E+00  0.00000000E+00  0.00000000E+00
  0.00000000E+00  0.00000000E+00  0.00000000E+00
  0.00000000E+00  0.00000000E+00  0.00000000E+00
  0.00000000E+00  0.00000000E+00  0.00000000E+00
  0.00000000E+00  0.00000000E+00  0.00000000E+00
  0.00000000E+00  0.00000000E+00  0.00000000E+00
  0.00000000E+00  0.00000000E+00  0.00000000E+00
  0.00000000E+00  0.00000000E+00  0.00000000E+00
  0.00000000E+00  0.00000000E+00  0.00000000E+00
  0.00000000E+00  0.00000000E+00  0.00000000E+00
  0.00000000E+00  0.00000000E+00  0.00000000E+00
  0.00000000E+00  0.00000000E+00  0.00000000E+00
  0.00000000E+00  0.00000000E+00  0.00000000E+00
