Poscar file generated with pyiron       
   1.00000000000000     
     4.7860741903766231    0.0529818042244691    0.1781674214077259
    -0.1269383209417657   10.4662385813286249    0.3206518082788900
    -0.6548571666645118   -0.5497423699206662   17.7931205780160440
   Cs   I    Pb
     4    12     4
Direct
  0.6587694352527760  0.0503358711096459  0.3630865711020293
  0.1550211792948450  0.8851426596141820  0.7067573902768686
  0.6580897316201401  0.5485280195240825  0.2067798188495447
  0.1550749396200914  0.3836900288700868  0.8630463086908222
  0.6556187088888784  0.3036371046522847  0.0329477318943871
  0.1561486388921706  0.6252882071321694  0.0365988997819615
  0.6561422527239019  0.8083132298407968  0.5366469852620426
  0.1569588867617913  0.1299375686978568  0.5329985322216012
  0.1559265214115860 -0.0011676974769863  0.9219470960190861
  0.6557024977277818  0.9309079293891422  0.1480007173732640
  0.1567505193659132  0.5026071209372330  0.6480648951525173
  0.6563268704858232  0.4349872623834371  0.4218640321353271
  0.1584811599926940  0.2657973476483962  0.2492515683715214
  0.6553041638326382  0.6667293250836172  0.8198512978755400
  0.1579526550178746  0.7673659908315805  0.3200545764793951
  0.6549437315700852  0.1679407146930474  0.7492996093646914
  0.1557950235698247  0.1251481739670070  0.0958657675653025
  0.6560815989709716  0.8043161740857503  0.9739069818958855
  0.1562355922273718  0.6293685967430769  0.4739665206530722
  0.6567588153930206  0.3084652948825593  0.5958782691129759
 
  0.00000000E+00  0.00000000E+00  0.00000000E+00
  0.00000000E+00  0.00000000E+00  0.00000000E+00
  0.00000000E+00  0.00000000E+00  0.00000000E+00
  0.00000000E+00  0.00000000E+00  0.00000000E+00
  0.00000000E+00  0.00000000E+00  0.00000000E+00
  0.00000000E+00  0.00000000E+00  0.00000000E+00
  0.00000000E+00  0.00000000E+00  0.00000000E+00
  0.00000000E+00  0.00000000E+00  0.00000000E+00
  0.00000000E+00  0.00000000E+00  0.00000000E+00
  0.00000000E+00  0.00000000E+00  0.00000000E+00
  0.00000000E+00  0.00000000E+00  0.00000000E+00
  0.00000000E+00  0.00000000E+00  0.00000000E+00
  0.00000000E+00  0.00000000E+00  0.00000000E+00
  0.00000000E+00  0.00000000E+00  0.00000000E+00
  0.00000000E+00  0.00000000E+00  0.00000000E+00
  0.00000000E+00  0.00000000E+00  0.00000000E+00
  0.00000000E+00  0.00000000E+00  0.00000000E+00
  0.00000000E+00  0.00000000E+00  0.00000000E+00
  0.00000000E+00  0.00000000E+00  0.00000000E+00
  0.00000000E+00  0.00000000E+00  0.00000000E+00
