Poscar file generated with pyiron       
   1.00000000000000     
     4.7876396431473980   -0.0870546110237901    0.0089907539146409
     0.1873645213268801   10.4628425986265068    0.2915243557073018
    -0.0406009995531115   -0.4875975603844885   17.8042471533924314
   Cs   I    Pb
     4    12     4
Direct
  0.6749959811567089  0.9944707998515211  0.3427901556654628
  0.1749762046279238  0.8308182947164465  0.6861087020551707
  0.6747018440423125  0.4952146409433463  0.1860090296595900
  0.1734467740493846  0.3317391040642931  0.8426915838851190
  0.6731845630334738  0.2532155475630619  0.0127866968709551
  0.1736184334745281  0.5755513555022249  0.0160610187439075
  0.6764291483655869  0.7512621644294765  0.5161488603261376
  0.1762685048870009  0.0732089950605687  0.5128748930501118
  0.1730963152376064  0.9485728150076614  0.9012811888451634
  0.6735858319820349  0.8798960593744097  0.1274160111434632
  0.1764218205742545  0.4469326006835245  0.6274019673810972
  0.6763165894567404  0.3779829566350749  0.4013168053535187
  0.1748422455198204  0.2122842041579384  0.2293620112197811
  0.6743718666061566  0.6146219168398226  0.7998049551158092
  0.1750784709118762  0.7117825616285675  0.2996856874287424
  0.6746277285828854  0.1140144996084681  0.7293521362864358
  0.1730958054439204  0.0742512322026308  0.0755216381714017
  0.6731040022464088  0.7542449826055568  0.9534225316144411
  0.1766794713237363  0.5724237765873601  0.4531631510682107
  0.6766592624132369  0.2522913200755614  0.5755335390834032
 
  0.00000000E+00  0.00000000E+00  0.00000000E+00
  0.00000000E+00  0.00000000E+00  0.00000000E+00
  0.00000000E+00  0.00000000E+00  0.00000000E+00
  0.00000000E+00  0.00000000E+00  0.00000000E+00
  0.00000000E+00  0.00000000E+00  0.00000000E+00
  0.00000000E+00  0.00000000E+00  0.00000000E+00
  0.00000000E+00  0.00000000E+00  0.00000000E+00
  0.00000000E+00  0.00000000E+00  0.00000000E+00
  0.00000000E+00  0.00000000E+00  0.00000000E+00
  0.00000000E+00  0.00000000E+00  0.00000000E+00
  0.00000000E+00  0.00000000E+00  0.00000000E+00
  0.00000000E+00  0.00000000E+00  0.00000000E+00
  0.00000000E+00  0.00000000E+00  0.00000000E+00
  0.00000000E+00  0.00000000E+00  0.00000000E+00
  0.00000000E+00  0.00000000E+00  0.00000000E+00
  0.00000000E+00  0.00000000E+00  0.00000000E+00
  0.00000000E+00  0.00000000E+00  0.00000000E+00
  0.00000000E+00  0.00000000E+00  0.00000000E+00
  0.00000000E+00  0.00000000E+00  0.00000000E+00
  0.00000000E+00  0.00000000E+00  0.00000000E+00
