Poscar file generated with pyiron       
   1.00000000000000     
     4.7809853762030441    0.0858946887312871    0.2035241430899545
    -0.1990260911656045   10.4669532356691732    0.2779666873217891
    -0.7457850162495169   -0.4986304786119678   17.7899506109105232
   Cs   I    Pb
     4    12     4
Direct
  0.6920723285403245  0.9844181331480449  0.3333839665561698
  0.1936856741392272  0.8202784760649299  0.6767565273233098
  0.6929097360453995  0.4851050535239961  0.1768631696650265
  0.1938778356583605  0.3208397100802026  0.8333369069743696
  0.6941989124471102  0.2425342158057756  0.0035343450751751
  0.1937771685383880  0.5646082697287773  0.0065305475769570
  0.6932624441386944  0.7407730897926257  0.5068869470240601
  0.1932146162527734  0.0625033356195156  0.5035022209959251
  0.1934428412738745  0.9377743887107632  0.8917840602083739
  0.6936690522927889  0.8686809623206384  0.1179209009099265
  0.1933146552813357  0.4360059698129175  0.6181296517524082
  0.6934532649758689  0.3671545205636855  0.3917987987948179
  0.1924617600953107  0.2019572763805491  0.2198229295566296
  0.6935517240887580  0.6036735947581018  0.7903155178085476
  0.1925798022667954  0.7016076112723728  0.2904850196652722
  0.6938666528844261  0.1032669816108364  0.7198775578414310
  0.1940718622567519  0.0633214504280117  0.0659487245963500
  0.6936377601831594  0.7434688880402121  0.9437654200285064
  0.1930225328491884  0.5617163933368177  0.4439838821311751
  0.6932673486593649  0.2416515644459229  0.5660739431747603
 
  0.00000000E+00  0.00000000E+00  0.00000000E+00
  0.00000000E+00  0.00000000E+00  0.00000000E+00
  0.00000000E+00  0.00000000E+00  0.00000000E+00
  0.00000000E+00  0.00000000E+00  0.00000000E+00
  0.00000000E+00  0.00000000E+00  0.00000000E+00
  0.00000000E+00  0.00000000E+00  0.00000000E+00
  0.00000000E+00  0.00000000E+00  0.00000000E+00
  0.00000000E+00  0.00000000E+00  0.00000000E+00
  0.00000000E+00  0.00000000E+00  0.00000000E+00
  0.00000000E+00  0.00000000E+00  0.00000000E+00
  0.00000000E+00  0.00000000E+00  0.00000000E+00
  0.00000000E+00  0.00000000E+00  0.00000000E+00
  0.00000000E+00  0.00000000E+00  0.00000000E+00
  0.00000000E+00  0.00000000E+00  0.00000000E+00
  0.00000000E+00  0.00000000E+00  0.00000000E+00
  0.00000000E+00  0.00000000E+00  0.00000000E+00
  0.00000000E+00  0.00000000E+00  0.00000000E+00
  0.00000000E+00  0.00000000E+00  0.00000000E+00
  0.00000000E+00  0.00000000E+00  0.00000000E+00
  0.00000000E+00  0.00000000E+00  0.00000000E+00
