Poscar file generated with pyiron       
   1.00000000000000     
     4.7797784439038074    0.0159498471541356    0.2994398764962514
    -0.0527463774923245   10.4663473624289249    0.2498428658607326
    -1.1038759644572744   -0.4221900924947370   17.7716192167824119
   Cs   I    Pb
     4    12     4
Direct
  0.6196372186159406  0.0000140424756011  0.3414758709607252
  0.1176186094004212  0.8364895707758653  0.6851190771969492
  0.6211960859912052  0.4999194204180105  0.1848606451435224
  0.1203808071995780  0.3365447197389295  0.8415374444823503
  0.6231084058610202  0.2574041909571462  0.0115981370837335
  0.1230993838885581  0.5796812929263567  0.0146168906329857
  0.6171761258190246  0.7573818953305511  0.5149222873863577
  0.1175662862071715  0.0792826497847556  0.5116855597368126
  0.1231087399037675  0.9531533279764446  0.8999537229986151
  0.6233947475561230  0.8837515644388223  0.1262169782597184
  0.1170508788256254  0.4528496034857998  0.6262213559697415
  0.6177160689399863  0.3840700149579125  0.4000812912873519
  0.1210640908868639  0.2170026685925907  0.2279648797646552
  0.6186862755565494  0.6193464428072150  0.7984669041011847
  0.1199524762646097  0.7172202356354438  0.2982378987322121
  0.6198307300775481  0.1196530691395099  0.7280117528214485
  0.1236615697655969  0.0782506906978300  0.0742397503579234
  0.6231198813835875  0.7587192414555841  0.9519759865009410
  0.1173429983261411  0.5786151123497916  0.4520510888289109
  0.6172596515590457  0.2583622525909335  0.5743996072992198
 
  0.00000000E+00  0.00000000E+00  0.00000000E+00
  0.00000000E+00  0.00000000E+00  0.00000000E+00
  0.00000000E+00  0.00000000E+00  0.00000000E+00
  0.00000000E+00  0.00000000E+00  0.00000000E+00
  0.00000000E+00  0.00000000E+00  0.00000000E+00
  0.00000000E+00  0.00000000E+00  0.00000000E+00
  0.00000000E+00  0.00000000E+00  0.00000000E+00
  0.00000000E+00  0.00000000E+00  0.00000000E+00
  0.00000000E+00  0.00000000E+00  0.00000000E+00
  0.00000000E+00  0.00000000E+00  0.00000000E+00
  0.00000000E+00  0.00000000E+00  0.00000000E+00
  0.00000000E+00  0.00000000E+00  0.00000000E+00
  0.00000000E+00  0.00000000E+00  0.00000000E+00
  0.00000000E+00  0.00000000E+00  0.00000000E+00
  0.00000000E+00  0.00000000E+00  0.00000000E+00
  0.00000000E+00  0.00000000E+00  0.00000000E+00
  0.00000000E+00  0.00000000E+00  0.00000000E+00
  0.00000000E+00  0.00000000E+00  0.00000000E+00
  0.00000000E+00  0.00000000E+00  0.00000000E+00
  0.00000000E+00  0.00000000E+00  0.00000000E+00
