Poscar file generated with pyiron       
   1.00000000000000     
     8.4824439180197313    0.0204912053540622   -0.0813749118043270
    -0.0983943285835277   13.9682691723377026   -0.1356009868957736
     0.0691661040406839    0.0767325506551329    7.9790256060569966
   Cs   I    Pb
     4    12     4
Direct
  0.4932430888043938  0.1482019473684492  0.2606201877056716
  0.9846987427535404  0.3284910224677033  0.7721701657671871
  0.9934491187147664  0.6480240248001743  0.2739844186244118
  0.4837511023719671  0.8290596020900799  0.7607725191461585
  0.2409562220054985  0.0886364003808452  0.6706028830538623
  0.2384496869449624  0.3875553797890201  0.3645347020770328
  0.7242947069697073  0.0735767464252998  0.6690657666000415
  0.7544643296696990  0.4042726441855742  0.3645227108032790
  0.5070391447713634  0.3074910809225765  0.8681859410733194
  0.9724174019122637  0.1698469303205590  0.1659338496158938
  0.7396771384148469  0.5898159266479396  0.8648416683978085
  0.7379408483370422  0.8877636249496071  0.1703327486705626
  0.2231861744924655  0.5726474984725095  0.8642161729394565
  0.2540929078380535  0.9037573671813441  0.1696444180832643
  0.0050913444235553  0.8074470018690744  0.6663100282938228
  0.4713154276766418  0.6697596862813990  0.3681199281011501
 -0.0101714241788607  0.9890486451637197  0.4289793322600352
 -0.0118069307934929  0.9880966578607338  0.9291433706333937
  0.4887008479478380  0.4882410130748492  0.6053951528509035
  0.4894474572561898  0.4890552212293997  0.1052093883860888
 
  0.00000000E+00  0.00000000E+00  0.00000000E+00
  0.00000000E+00  0.00000000E+00  0.00000000E+00
  0.00000000E+00  0.00000000E+00  0.00000000E+00
  0.00000000E+00  0.00000000E+00  0.00000000E+00
  0.00000000E+00  0.00000000E+00  0.00000000E+00
  0.00000000E+00  0.00000000E+00  0.00000000E+00
  0.00000000E+00  0.00000000E+00  0.00000000E+00
  0.00000000E+00  0.00000000E+00  0.00000000E+00
  0.00000000E+00  0.00000000E+00  0.00000000E+00
  0.00000000E+00  0.00000000E+00  0.00000000E+00
  0.00000000E+00  0.00000000E+00  0.00000000E+00
  0.00000000E+00  0.00000000E+00  0.00000000E+00
  0.00000000E+00  0.00000000E+00  0.00000000E+00
  0.00000000E+00  0.00000000E+00  0.00000000E+00
  0.00000000E+00  0.00000000E+00  0.00000000E+00
  0.00000000E+00  0.00000000E+00  0.00000000E+00
  0.00000000E+00  0.00000000E+00  0.00000000E+00
  0.00000000E+00  0.00000000E+00  0.00000000E+00
  0.00000000E+00  0.00000000E+00  0.00000000E+00
  0.00000000E+00  0.00000000E+00  0.00000000E+00
