Poscar file generated with pyiron       
   1.00000000000000     
     8.3404973231612036    0.1142073844722485    0.9428289830987889
    -0.1345756505426239   14.4616652850888130   -0.5171900845769175
     0.2067004943282188    0.2267011654832075    7.8623480585053249
   Cs   I    Pb
     4    12     4
Direct
  0.4810279329933350  0.1841120068920412  0.2168929408723175
  0.9598721482949186  0.3428475933493100  0.7691963179900158
 -0.0384469644505388  0.6717778091603501  0.2745065062753741
  0.4777264199314571  0.8536513725608516  0.7100181558403272
  0.2438171312862113  0.0944441104923264  0.6432410064513141
  0.1964812030504150  0.4302982492281497  0.3401435509032397
  0.7123020527991144  0.1077653352644045  0.7267212522548233
  0.7283341492552581  0.4188521337682943  0.2559990599882220
  0.4368393708417283  0.3375688248814248  0.8118835490912277
  0.0042161323992379  0.1879968639572420  0.1712743510814958
  0.7472960575670856  0.5876305917025918  0.7590096868387086
  0.6908536187941614  0.9390759173100338  0.2248127027411542
  0.2186144035107817  0.6176303931234691  0.8358083621998234
  0.2189579460483628  0.9066554087785542  0.1474061931618386
  0.9602120079559041  0.8362107175166015  0.6728255053708938
  0.4783768640075793  0.6895280791887647  0.3107051665041631
  0.9717691673788317  0.0136678578671854  0.4349349980027278
  0.9721762633447879  0.0102114631721753  0.9368075336985019
  0.4678189516749922  0.5120029084256882  0.5484018026908237
  0.4668749291297973  0.5154961251945746  0.0466197939477493
 
  0.00000000E+00  0.00000000E+00  0.00000000E+00
  0.00000000E+00  0.00000000E+00  0.00000000E+00
  0.00000000E+00  0.00000000E+00  0.00000000E+00
  0.00000000E+00  0.00000000E+00  0.00000000E+00
  0.00000000E+00  0.00000000E+00  0.00000000E+00
  0.00000000E+00  0.00000000E+00  0.00000000E+00
  0.00000000E+00  0.00000000E+00  0.00000000E+00
  0.00000000E+00  0.00000000E+00  0.00000000E+00
  0.00000000E+00  0.00000000E+00  0.00000000E+00
  0.00000000E+00  0.00000000E+00  0.00000000E+00
  0.00000000E+00  0.00000000E+00  0.00000000E+00
  0.00000000E+00  0.00000000E+00  0.00000000E+00
  0.00000000E+00  0.00000000E+00  0.00000000E+00
  0.00000000E+00  0.00000000E+00  0.00000000E+00
  0.00000000E+00  0.00000000E+00  0.00000000E+00
  0.00000000E+00  0.00000000E+00  0.00000000E+00
  0.00000000E+00  0.00000000E+00  0.00000000E+00
  0.00000000E+00  0.00000000E+00  0.00000000E+00
  0.00000000E+00  0.00000000E+00  0.00000000E+00
  0.00000000E+00  0.00000000E+00  0.00000000E+00
