Poscar file generated with pyiron       
   1.00000000000000     
     8.2691456585654048   -0.1070480851086643    1.2921970706393737
     0.0801637326648074   14.5759182846345734    0.5529068198387285
     0.0933548723455275   -0.2193920882836493    7.8667898189428227
   Cs   I    Pb
     4    12     4
Direct
  0.4883091114458340  0.1852276772158878  0.2089410317929238
 -0.0152156356399160  0.3615306428676055  0.7729100741928427
  0.9786837584042989  0.7010147843009220  0.2608277700427861
  0.4921124613784906  0.8462269189933147  0.7188263731935141
  0.2341929485800894  0.1297306225537297  0.6553299502676184
  0.2377632378512565  0.4174423202215375  0.3253251955414726
  0.6988318907254119  0.0919009428801929  0.7488339080205826
  0.7724077826353607  0.4554138430694039  0.2319534363314335
  0.5031923218468775  0.3474725496768793  0.7928362788770548
  0.9699884436713795  0.1996976970110253  0.1867637953290584
  0.7483799981520133  0.6167735195391999  0.7288843865780249
  0.7227241481220323  0.9306992579116198  0.2517559293724716
  0.2109745004858135  0.6024464555616890  0.8304729012321657
  0.2600515157558577  0.9442961231382943  0.1501816186913777
  0.0181949742372455  0.8498508033401569  0.6850009620216442
  0.4524727431379441  0.6973694097969835  0.2947893634018066
 -0.0149108921939186  0.0271461795399173  0.4508983369341024
  0.9846503238207588  0.0228108030519253  0.9487881270975473
  0.4863114443094054  0.5203548762414842  0.5296877990040831
  0.4869433026922075  0.5241598498596388  0.0314792977237163
 
  0.00000000E+00  0.00000000E+00  0.00000000E+00
  0.00000000E+00  0.00000000E+00  0.00000000E+00
  0.00000000E+00  0.00000000E+00  0.00000000E+00
  0.00000000E+00  0.00000000E+00  0.00000000E+00
  0.00000000E+00  0.00000000E+00  0.00000000E+00
  0.00000000E+00  0.00000000E+00  0.00000000E+00
  0.00000000E+00  0.00000000E+00  0.00000000E+00
  0.00000000E+00  0.00000000E+00  0.00000000E+00
  0.00000000E+00  0.00000000E+00  0.00000000E+00
  0.00000000E+00  0.00000000E+00  0.00000000E+00
  0.00000000E+00  0.00000000E+00  0.00000000E+00
  0.00000000E+00  0.00000000E+00  0.00000000E+00
  0.00000000E+00  0.00000000E+00  0.00000000E+00
  0.00000000E+00  0.00000000E+00  0.00000000E+00
  0.00000000E+00  0.00000000E+00  0.00000000E+00
  0.00000000E+00  0.00000000E+00  0.00000000E+00
  0.00000000E+00  0.00000000E+00  0.00000000E+00
  0.00000000E+00  0.00000000E+00  0.00000000E+00
  0.00000000E+00  0.00000000E+00  0.00000000E+00
  0.00000000E+00  0.00000000E+00  0.00000000E+00
