Poscar file generated with pyiron       
   1.00000000000000     
     8.2876151969140359    0.1997461054479238    1.1434676593753299
    -0.2871187388010676   14.6285813270142508   -0.6312843926352979
     0.1870196829018722    0.2166213536982078    7.8470240131152815
   Cs   I    Pb
     4    12     4
Direct
  0.4722010026306231  0.1958902248406452  0.2270988643937583
  0.9631579873721868  0.3359677055939834  0.7635894499610324
  0.9720554238244455  0.6736454628891561  0.2803468851279992
  0.4625920740057299  0.8581455877931464  0.7104248903324656
  0.2369014844055086  0.0949948142821287  0.6560624792725548
  0.1994301081027421  0.4367041257395436  0.3352556474207962
  0.7013662962459495  0.1098949111590490  0.7559850358300098
  0.7348650992313478  0.4223031105300784  0.2354698412681496
  0.4359188457470367  0.3429863171301499  0.7982057243868949
  0.0000288924789814  0.1890119216442395  0.1927263610051787
  0.7641694443621003  0.5804298528980296  0.7407230820976417
  0.6717886639854254  0.9516466471476210  0.2507083663276137
  0.2293218759029042  0.6253394611151276  0.8304626812123758
  0.2064151645183071  0.9064978539517771  0.1610823869031736
  0.9415622797569670  0.8399964968873054  0.6922363615820284
  0.4933730971632614  0.6920210286079362  0.2989005642414844
  0.9607726083390604  0.0158729962146507  0.4531842653444332
  0.9611391763374093  0.0125517071651123  0.9561205883298758
  0.4751414325807270  0.5162794975633898  0.5381293834835074
  0.4748577951598560  0.5193375353459772  0.0352577414555261
 
  0.00000000E+00  0.00000000E+00  0.00000000E+00
  0.00000000E+00  0.00000000E+00  0.00000000E+00
  0.00000000E+00  0.00000000E+00  0.00000000E+00
  0.00000000E+00  0.00000000E+00  0.00000000E+00
  0.00000000E+00  0.00000000E+00  0.00000000E+00
  0.00000000E+00  0.00000000E+00  0.00000000E+00
  0.00000000E+00  0.00000000E+00  0.00000000E+00
  0.00000000E+00  0.00000000E+00  0.00000000E+00
  0.00000000E+00  0.00000000E+00  0.00000000E+00
  0.00000000E+00  0.00000000E+00  0.00000000E+00
  0.00000000E+00  0.00000000E+00  0.00000000E+00
  0.00000000E+00  0.00000000E+00  0.00000000E+00
  0.00000000E+00  0.00000000E+00  0.00000000E+00
  0.00000000E+00  0.00000000E+00  0.00000000E+00
  0.00000000E+00  0.00000000E+00  0.00000000E+00
  0.00000000E+00  0.00000000E+00  0.00000000E+00
  0.00000000E+00  0.00000000E+00  0.00000000E+00
  0.00000000E+00  0.00000000E+00  0.00000000E+00
  0.00000000E+00  0.00000000E+00  0.00000000E+00
  0.00000000E+00  0.00000000E+00  0.00000000E+00
