Poscar file generated with pyiron       
   1.00000000000000     
     8.2262852425183652    0.1868005484459458    1.4738096462212356
     0.0426680593740855   14.5799390782630365   -1.4154308714870787
    -0.0153745552071501    0.1671807635843462    7.8689651042464872
   Cs   I    Pb
     4    12     4
Direct
  0.4740695231369113  0.1922775558683154  0.2845339253780422
  0.9724001713341756  0.3365950813234075  0.7572022959612138
 -0.0313021263031743  0.6808302661092412  0.2930968437553010
  0.4766922038480404  0.8480711853729587  0.7466206184982852
  0.2446935814118470  0.0910854351800196  0.7146773202127018
  0.2009606709616086  0.4376139595954334  0.3264987305394393
  0.7049255110311820  0.1082626572074981  0.8234491415446193
  0.7408816268571017  0.4205246942752928  0.2169538699781300
  0.4568174533680118  0.3399981428956712  0.7632977624482939
  0.9881026918882461  0.1886419381657596  0.2790252380985520
  0.7583140858120976  0.5861647987668458  0.7421710014617005
  0.6880319874125729  0.9418254453857881  0.2986050640219440
  0.2210687358742355  0.6175475645290316  0.8424558881207287
  0.2251932631382489  0.9113050064538445  0.1976403208437617
  0.9599141693717231  0.8382755549706995  0.7324875801576776
  0.4849632995735833  0.6902212043981036  0.3093412069272874
  0.9689690680764411  0.0132791691567576  0.5073249210133192
  0.9697002422578253  0.0127813545636283  0.0089949300545705
  0.4772465246971800  0.5150099861883036  0.5336927972435709
  0.4757551599484820  0.5160661792658628  0.0321297512073221
 
  0.00000000E+00  0.00000000E+00  0.00000000E+00
  0.00000000E+00  0.00000000E+00  0.00000000E+00
  0.00000000E+00  0.00000000E+00  0.00000000E+00
  0.00000000E+00  0.00000000E+00  0.00000000E+00
  0.00000000E+00  0.00000000E+00  0.00000000E+00
  0.00000000E+00  0.00000000E+00  0.00000000E+00
  0.00000000E+00  0.00000000E+00  0.00000000E+00
  0.00000000E+00  0.00000000E+00  0.00000000E+00
  0.00000000E+00  0.00000000E+00  0.00000000E+00
  0.00000000E+00  0.00000000E+00  0.00000000E+00
  0.00000000E+00  0.00000000E+00  0.00000000E+00
  0.00000000E+00  0.00000000E+00  0.00000000E+00
  0.00000000E+00  0.00000000E+00  0.00000000E+00
  0.00000000E+00  0.00000000E+00  0.00000000E+00
  0.00000000E+00  0.00000000E+00  0.00000000E+00
  0.00000000E+00  0.00000000E+00  0.00000000E+00
  0.00000000E+00  0.00000000E+00  0.00000000E+00
  0.00000000E+00  0.00000000E+00  0.00000000E+00
  0.00000000E+00  0.00000000E+00  0.00000000E+00
  0.00000000E+00  0.00000000E+00  0.00000000E+00
