Poscar file generated with pyiron       
   1.00000000000000     
     8.2969588648472143    0.0368556916075603    1.1394608988216559
     0.0325283955268648   14.5870739523354178   -0.3744032313902906
     0.3181787535090267    0.1215141106823750    7.8668639292907070
   Cs   I    Pb
     4    12     4
Direct
  0.4958019920489477  0.1833230047903305  0.2168659798052875
 -0.0136263441690276  0.3339658951954098  0.7525742516913257
 -0.0128502269482099  0.6794759213952870  0.2612875666858212
  0.4954676441887424  0.8381976507626596  0.7086162687184188
  0.2728940279890411  0.0864534751475658  0.6545705026585874
  0.2088216455846463  0.4311534187608986  0.3152851244141400
  0.7329914216817701  0.1013865772111759  0.7599520091235810
  0.7487183262549829  0.4159734120098594  0.2097749884415119
  0.4628552141682132  0.3337053328935264  0.7754373472053140
  0.0188867414245167  0.1837746595919006  0.1943195906416265
  0.7666292028215178  0.5823366626132088  0.7114134430501039
  0.7152715474298049  0.9351190179229297  0.2583418985298503
  0.2288184597975129  0.6078907450392221  0.8136090494031593
  0.2531931732031169  0.9096710241647475  0.1561469503473360
  0.9816559336907004  0.8332073806286251  0.6940897407384573
  0.5004188841429773  0.6842769205775588  0.2755509873012348
  0.9959639388539367  0.0100807468870234  0.4557144214708282
  0.9963619684044127  0.0066911388958464 -0.0433112086273969
  0.4859191356770333  0.5074535980468454  0.5141809324123061
  0.4855309610253256  0.5107986438289159  0.0131272947903569
 
  0.00000000E+00  0.00000000E+00  0.00000000E+00
  0.00000000E+00  0.00000000E+00  0.00000000E+00
  0.00000000E+00  0.00000000E+00  0.00000000E+00
  0.00000000E+00  0.00000000E+00  0.00000000E+00
  0.00000000E+00  0.00000000E+00  0.00000000E+00
  0.00000000E+00  0.00000000E+00  0.00000000E+00
  0.00000000E+00  0.00000000E+00  0.00000000E+00
  0.00000000E+00  0.00000000E+00  0.00000000E+00
  0.00000000E+00  0.00000000E+00  0.00000000E+00
  0.00000000E+00  0.00000000E+00  0.00000000E+00
  0.00000000E+00  0.00000000E+00  0.00000000E+00
  0.00000000E+00  0.00000000E+00  0.00000000E+00
  0.00000000E+00  0.00000000E+00  0.00000000E+00
  0.00000000E+00  0.00000000E+00  0.00000000E+00
  0.00000000E+00  0.00000000E+00  0.00000000E+00
  0.00000000E+00  0.00000000E+00  0.00000000E+00
  0.00000000E+00  0.00000000E+00  0.00000000E+00
  0.00000000E+00  0.00000000E+00  0.00000000E+00
  0.00000000E+00  0.00000000E+00  0.00000000E+00
  0.00000000E+00  0.00000000E+00  0.00000000E+00
