Poscar file generated with pyiron       
   1.00000000000000     
     8.2804931687051599    0.0545780910387295    1.2620156180853723
    -0.1815468892833227   14.5271234814497614    0.4159524410359075
     0.1140774152479346   -0.1629005805136419    7.8709772995919947
   Cs   I    Pb
     4    12     4
Direct
  0.4956681114420667  0.1915356983067752  0.1997729264074395
 -0.0187098270266047  0.3626987433575037  0.7603358637697580
 -0.0165473101471334  0.6992701252466443  0.2566342240146289
  0.4983040089206054  0.8521775381485790  0.7072300658369542
  0.2413333968398747  0.1321862930877934  0.6433054553147121
  0.2335426707060692  0.4235171301208849  0.3168049025627293
  0.7086587173043956  0.0970753237338357  0.7374780667845393
  0.7672514947085227  0.4545714888365747  0.2233340843004357
  0.4994618242646565  0.3506842168815300  0.7844010731842153
  0.9766102516855895  0.2026310165550801  0.1757744950110296
  0.7472229107216261  0.6197866670413622  0.7215347681132080
  0.7329031910594800  0.9317527094546831  0.2377232820168463
  0.2099439397603118  0.6058351450493726  0.8209219644057757
  0.2692203409022857  0.9490736013070611  0.1394710148934627
  0.0253433413939829  0.8521501860638397  0.6724886788667813
  0.4563892903433027  0.7013551076699025  0.2862827621980095
  0.9929642775538580  0.0293690419263616  0.4389110006850866
  0.9928178494587956  0.0255591382045518  0.9374524364960408
  0.4844306133431603  0.5239576010333458  0.5209156041933872
  0.4854458852916907  0.5278339205155111  0.0221910517916404
 
  0.00000000E+00  0.00000000E+00  0.00000000E+00
  0.00000000E+00  0.00000000E+00  0.00000000E+00
  0.00000000E+00  0.00000000E+00  0.00000000E+00
  0.00000000E+00  0.00000000E+00  0.00000000E+00
  0.00000000E+00  0.00000000E+00  0.00000000E+00
  0.00000000E+00  0.00000000E+00  0.00000000E+00
  0.00000000E+00  0.00000000E+00  0.00000000E+00
  0.00000000E+00  0.00000000E+00  0.00000000E+00
  0.00000000E+00  0.00000000E+00  0.00000000E+00
  0.00000000E+00  0.00000000E+00  0.00000000E+00
  0.00000000E+00  0.00000000E+00  0.00000000E+00
  0.00000000E+00  0.00000000E+00  0.00000000E+00
  0.00000000E+00  0.00000000E+00  0.00000000E+00
  0.00000000E+00  0.00000000E+00  0.00000000E+00
  0.00000000E+00  0.00000000E+00  0.00000000E+00
  0.00000000E+00  0.00000000E+00  0.00000000E+00
  0.00000000E+00  0.00000000E+00  0.00000000E+00
  0.00000000E+00  0.00000000E+00  0.00000000E+00
  0.00000000E+00  0.00000000E+00  0.00000000E+00
  0.00000000E+00  0.00000000E+00  0.00000000E+00
