Poscar file generated with pyiron       
   1.00000000000000     
     8.3454534038997643    0.1094561465558714    0.9800552845065952
    -0.1176470327156039   14.4411160782534669   -0.4325077675843937
     0.1515143590822832    0.1873166210232878    7.8710501269101165
   Cs   I    Pb
     4    12     4
Direct
  0.4830110853130246  0.1857792971124285  0.2237020824500990
  0.9598739067695544  0.3466525549419703  0.7754577260595790
 -0.0393258937659749  0.6761931798968136  0.2798949416454657
  0.4825108161206991  0.8561571063470569  0.7195783383949393
  0.2461510593456984  0.0985939928186477  0.6508491901132236
  0.1971331711720874  0.4335811490014579  0.3485426631215503
  0.7148506248239205  0.1101921368462381  0.7325757619268959
  0.7287134457621021  0.4220463157359234  0.2667792149102050
  0.4388085052752496  0.3405109369020031  0.8215398402275074
  0.0047989322003928  0.1917266292292748  0.1776759004956934
  0.7463138812482336  0.5926025740237316  0.7690456313139634
  0.6971660134439173  0.9398972923481775  0.2303237257607341
  0.2183564785193814  0.6204013899119224  0.8449407632456244
  0.2247238143140403  0.9119040111047919  0.1544540391616781
  0.9666795493950978  0.8392081942364066  0.6789017600643372
  0.4766170368668908  0.6931482800479202  0.3204232277746062
  0.9755367228388053  0.0169819906504169  0.4418508233770796
  0.9760577549348161  0.0136004892211183  0.9433958826338074
  0.4678290614934091  0.5152884587853184  0.5575706627315811
  0.4672132824857506  0.5187649207117541  0.0560043696701743
 
  0.00000000E+00  0.00000000E+00  0.00000000E+00
  0.00000000E+00  0.00000000E+00  0.00000000E+00
  0.00000000E+00  0.00000000E+00  0.00000000E+00
  0.00000000E+00  0.00000000E+00  0.00000000E+00
  0.00000000E+00  0.00000000E+00  0.00000000E+00
  0.00000000E+00  0.00000000E+00  0.00000000E+00
  0.00000000E+00  0.00000000E+00  0.00000000E+00
  0.00000000E+00  0.00000000E+00  0.00000000E+00
  0.00000000E+00  0.00000000E+00  0.00000000E+00
  0.00000000E+00  0.00000000E+00  0.00000000E+00
  0.00000000E+00  0.00000000E+00  0.00000000E+00
  0.00000000E+00  0.00000000E+00  0.00000000E+00
  0.00000000E+00  0.00000000E+00  0.00000000E+00
  0.00000000E+00  0.00000000E+00  0.00000000E+00
  0.00000000E+00  0.00000000E+00  0.00000000E+00
  0.00000000E+00  0.00000000E+00  0.00000000E+00
  0.00000000E+00  0.00000000E+00  0.00000000E+00
  0.00000000E+00  0.00000000E+00  0.00000000E+00
  0.00000000E+00  0.00000000E+00  0.00000000E+00
  0.00000000E+00  0.00000000E+00  0.00000000E+00
