Poscar file generated with pyiron       
   1.00000000000000     
     8.2892426049875443    0.1824792765594173    1.1623208988474663
    -0.1839586656666245   14.5926259302262711   -0.6221929885785979
     0.2411355723088776    0.1959103033645096    7.8400905505622625
   Cs   I    Pb
     4    12     4
Direct
  0.4611921639713361  0.1975933228950101  0.2338244387458208
 -0.0480351857986682  0.3416352636743840  0.7635332985699785
  0.9548310278049182  0.6840740419238627  0.2788598421053749
  0.4590213138502900  0.8548400589337228  0.7198245177438890
  0.2334599705226406  0.0963670221375798  0.6665665122074391
  0.1802847403561817  0.4427854252747303  0.3318584106428962
  0.6949618734179940  0.1134871437534274  0.7708804288383685
  0.7186107349738516  0.4258680833517872  0.2274626017513031
  0.4252294610288988  0.3456766234903869  0.7913842827755762
  0.9885966204269259  0.1935514587625510  0.2067602820616315
  0.7428708590195339  0.5878644398727344  0.7330555241664451
  0.6702752792628242  0.9517600990574132  0.2655109784919971
  0.2068561854795436  0.6252814263554843  0.8291485219407965
  0.2059964283142421  0.9135541868829266  0.1691352821238820
  0.9385992480667732  0.8436756381504541  0.7034963584795955
  0.4754635264599716  0.6955935734229404  0.2946662758668557
  0.9560514992563932  0.0200281878646077  0.4656436083066527
  0.9565103132329092  0.0166877165822721  0.9675756844868894
  0.4577365196369390  0.5193378080151644  0.5325124776705999
  0.4566783911871382  0.5224787263726449  0.0304907667236982
 
  0.00000000E+00  0.00000000E+00  0.00000000E+00
  0.00000000E+00  0.00000000E+00  0.00000000E+00
  0.00000000E+00  0.00000000E+00  0.00000000E+00
  0.00000000E+00  0.00000000E+00  0.00000000E+00
  0.00000000E+00  0.00000000E+00  0.00000000E+00
  0.00000000E+00  0.00000000E+00  0.00000000E+00
  0.00000000E+00  0.00000000E+00  0.00000000E+00
  0.00000000E+00  0.00000000E+00  0.00000000E+00
  0.00000000E+00  0.00000000E+00  0.00000000E+00
  0.00000000E+00  0.00000000E+00  0.00000000E+00
  0.00000000E+00  0.00000000E+00  0.00000000E+00
  0.00000000E+00  0.00000000E+00  0.00000000E+00
  0.00000000E+00  0.00000000E+00  0.00000000E+00
  0.00000000E+00  0.00000000E+00  0.00000000E+00
  0.00000000E+00  0.00000000E+00  0.00000000E+00
  0.00000000E+00  0.00000000E+00  0.00000000E+00
  0.00000000E+00  0.00000000E+00  0.00000000E+00
  0.00000000E+00  0.00000000E+00  0.00000000E+00
  0.00000000E+00  0.00000000E+00  0.00000000E+00
  0.00000000E+00  0.00000000E+00  0.00000000E+00
