Poscar file generated with pyiron       
   1.00000000000000     
     8.4738168885599183    0.0972355207441577   -0.0353888814066796
    -0.1745737887314884   13.9401035591980786    0.0150339911874700
     0.0788189634322670   -0.0109601652770274    7.9918137303945178
   Cs   I    Pb
     4    12     4
Direct
  0.4939825432553985  0.1535982733921177  0.2406786906104069
  0.9843586323850950  0.3342802388369074  0.7528098653139508
  0.9886635116313692  0.6537194540394584  0.2549873297165238
  0.4923039444276281  0.8389561729962393  0.7375277315044393
  0.2461109252584598  0.0923195601472080  0.6506429220231871
  0.2381782662687744  0.3932091626758231  0.3491532084192201
  0.7308524305771359  0.0840622633297942  0.6467915280101721
  0.7530460880263343  0.4105769921112654  0.3451222786168002
  0.5072222767369079  0.3138995211288819  0.8518443895003899
  0.9804911867950662  0.1760601263646558  0.1462876525767515
  0.7359475051416923  0.5975104153500727  0.8464553399028880
  0.7376618576547341  0.8965170208489092  0.1534173502699956
  0.2195349557688755  0.5777815210145290  0.8484850342208907
  0.2539106924355494  0.9064676880458312  0.1431977603032744
  0.0043857917823557  0.8133892936328525  0.6461050072605911
  0.4646845953469102  0.6762919566859604  0.3527932419181510
 -0.0057461373245079 -0.0052429283695179  0.4079922843109264
 -0.0097955889757656  0.9943532783928106  0.9084209665434331
  0.4865987069407354  0.4944708357729557  0.5888706725068544
  0.4868708598628693  0.4960551007213045  0.0884770656679801
 
  0.00000000E+00  0.00000000E+00  0.00000000E+00
  0.00000000E+00  0.00000000E+00  0.00000000E+00
  0.00000000E+00  0.00000000E+00  0.00000000E+00
  0.00000000E+00  0.00000000E+00  0.00000000E+00
  0.00000000E+00  0.00000000E+00  0.00000000E+00
  0.00000000E+00  0.00000000E+00  0.00000000E+00
  0.00000000E+00  0.00000000E+00  0.00000000E+00
  0.00000000E+00  0.00000000E+00  0.00000000E+00
  0.00000000E+00  0.00000000E+00  0.00000000E+00
  0.00000000E+00  0.00000000E+00  0.00000000E+00
  0.00000000E+00  0.00000000E+00  0.00000000E+00
  0.00000000E+00  0.00000000E+00  0.00000000E+00
  0.00000000E+00  0.00000000E+00  0.00000000E+00
  0.00000000E+00  0.00000000E+00  0.00000000E+00
  0.00000000E+00  0.00000000E+00  0.00000000E+00
  0.00000000E+00  0.00000000E+00  0.00000000E+00
  0.00000000E+00  0.00000000E+00  0.00000000E+00
  0.00000000E+00  0.00000000E+00  0.00000000E+00
  0.00000000E+00  0.00000000E+00  0.00000000E+00
  0.00000000E+00  0.00000000E+00  0.00000000E+00
