Poscar file generated with pyiron       
   1.00000000000000     
     8.2902003997590032    0.0134463674010064    1.1410494676955933
     0.1194288523271481   14.6864017184555991   -0.9148143217656116
     0.1938919984142002   -0.1700737208818006    7.8277087919818031
   Cs   I    Pb
     4    12     4
Direct
  0.4725838272427150  0.1782529247875717  0.2463351359307513
 -0.0248824633360035  0.3177939329012156  0.7168675688852868
  0.9792490540673714  0.6558429763067717  0.2570374051157932
  0.4705019812159081  0.8407537235207010  0.7070225186605376
  0.2393281433534666  0.0735345409953501  0.6762014086024940
  0.2080208376766611  0.4222949498151974  0.2849061894825632
  0.7039253307996187  0.0951590321493438  0.7811510891403597
  0.7427388248185046  0.4011636053255172  0.1814330814341990
  0.4522637931978429  0.3254575545579545  0.7240388713211257
 -0.0057064525472419  0.1709623720593377  0.2379222587804419
  0.7738970696293604  0.5619998042098842  0.7079811509569099
  0.6733751297957487  0.9338831345011868  0.2529032255888765
  0.2389656951366977  0.6096733833273794  0.8025059042314311
  0.2084008454684174  0.8872437873733903  0.1600245594660772
  0.9446110467762672  0.8217853934104228  0.6896178098811931
  0.5036588568442268  0.6745423238314174  0.2721456273813144
  0.9616572044642711 -0.0038347165570645  0.4649981873333887
  0.9626625373799581  0.9956002416650926 -0.0323373174981678
  0.4847457656641379  0.5002818888241388  0.4969788168660381
  0.4848354579734634  0.5007931331823656 -0.0059330076655713
 
  0.00000000E+00  0.00000000E+00  0.00000000E+00
  0.00000000E+00  0.00000000E+00  0.00000000E+00
  0.00000000E+00  0.00000000E+00  0.00000000E+00
  0.00000000E+00  0.00000000E+00  0.00000000E+00
  0.00000000E+00  0.00000000E+00  0.00000000E+00
  0.00000000E+00  0.00000000E+00  0.00000000E+00
  0.00000000E+00  0.00000000E+00  0.00000000E+00
  0.00000000E+00  0.00000000E+00  0.00000000E+00
  0.00000000E+00  0.00000000E+00  0.00000000E+00
  0.00000000E+00  0.00000000E+00  0.00000000E+00
  0.00000000E+00  0.00000000E+00  0.00000000E+00
  0.00000000E+00  0.00000000E+00  0.00000000E+00
  0.00000000E+00  0.00000000E+00  0.00000000E+00
  0.00000000E+00  0.00000000E+00  0.00000000E+00
  0.00000000E+00  0.00000000E+00  0.00000000E+00
  0.00000000E+00  0.00000000E+00  0.00000000E+00
  0.00000000E+00  0.00000000E+00  0.00000000E+00
  0.00000000E+00  0.00000000E+00  0.00000000E+00
  0.00000000E+00  0.00000000E+00  0.00000000E+00
  0.00000000E+00  0.00000000E+00  0.00000000E+00
