Poscar file generated with pyiron       
   1.00000000000000     
     8.2513312619130090    0.1139375343193355    1.4106174954721533
     0.2001750324357149   14.5121343969397341   -1.5603615511928495
    -0.0486505382317179    0.0534268415395740    7.8736653529827878
   Cs   I    Pb
     4    12     4
Direct
  0.4597822362256289  0.1882116035452834  0.2963766388956078
  0.9690739351878178  0.3438849960168328  0.7651616668236304
  0.9531416423255589  0.6802392886121627  0.2995510526419389
  0.4722657134477643  0.8519364109287136  0.7594351416594811
  0.2347701602170640  0.0941594233506208  0.7367539594219266
  0.1932272744672814  0.4378040161766154  0.3259818453053705
  0.6990171657029937  0.1109589591275559  0.8383434188268053
  0.7299121413077050  0.4214004716655750  0.2226747205840291
  0.4557042798941864  0.3408080879976964  0.7576366056038790
  0.9717432786681593  0.1908520572905521  0.3041114371495777
  0.7429239742408005  0.5923282680723045  0.7573800478594782
  0.6854547566029454  0.9391939835150566  0.3044981401968319
  0.2096159541532262  0.6176314826522183  0.8512045464436189
  0.2189411289752796  0.9143331694956969  0.2101621184960251
  0.9579964112394781  0.8393539124437569  0.7379758949187699
  0.4685314451234774  0.6922751687566806  0.3236337168732012
 -0.0386666146983911  0.0147417830880454  0.5215569898181650
  0.9625243536805369  0.0146385990132096  0.0226236254550051
  0.4668325092930452  0.5168558752917847  0.5398579822478383
  0.4656136477196290  0.5171737919547412  0.0385228305865445
 
  0.00000000E+00  0.00000000E+00  0.00000000E+00
  0.00000000E+00  0.00000000E+00  0.00000000E+00
  0.00000000E+00  0.00000000E+00  0.00000000E+00
  0.00000000E+00  0.00000000E+00  0.00000000E+00
  0.00000000E+00  0.00000000E+00  0.00000000E+00
  0.00000000E+00  0.00000000E+00  0.00000000E+00
  0.00000000E+00  0.00000000E+00  0.00000000E+00
  0.00000000E+00  0.00000000E+00  0.00000000E+00
  0.00000000E+00  0.00000000E+00  0.00000000E+00
  0.00000000E+00  0.00000000E+00  0.00000000E+00
  0.00000000E+00  0.00000000E+00  0.00000000E+00
  0.00000000E+00  0.00000000E+00  0.00000000E+00
  0.00000000E+00  0.00000000E+00  0.00000000E+00
  0.00000000E+00  0.00000000E+00  0.00000000E+00
  0.00000000E+00  0.00000000E+00  0.00000000E+00
  0.00000000E+00  0.00000000E+00  0.00000000E+00
  0.00000000E+00  0.00000000E+00  0.00000000E+00
  0.00000000E+00  0.00000000E+00  0.00000000E+00
  0.00000000E+00  0.00000000E+00  0.00000000E+00
  0.00000000E+00  0.00000000E+00  0.00000000E+00
