Poscar file generated with pyiron       
   1.00000000000000     
     8.4678273085174727    0.0730097431540353   -0.1654426210631178
    -0.1153165296826808   13.9453631941580518    0.1594529730649754
     0.1473153487374541   -0.0928091092182592    7.9925860052364657
   Cs   I    Pb
     4    12     4
Direct
  0.4908073021319120  0.1495383276436463  0.2623385515040839
  0.9906731311465793  0.3328480868775046  0.7771228390091345
  0.9906965201840087  0.6496446021496590  0.2769836915604727
  0.4919553707159554  0.8327027117806907  0.7621824365115397
  0.2502187541222626  0.0834199466303390  0.6728690428820520
  0.2312112278209910  0.3990458566188818  0.3670603602667681
  0.7338253393106507  0.0854275635957912  0.6714180651552807
  0.7476216207743889  0.3970219966904395  0.3679242789827795
  0.4880331489135278  0.3097251422969411  0.8713385878376504
 -0.0058279417268507  0.1728126643198308  0.1682210834560627
  0.7498818149659988  0.5829412126025573  0.8680667974430007
  0.7322905840218101  0.8991399290991310  0.1718979929552255
  0.2331722678561386  0.5851838481699860  0.8670555502117493
  0.2486881856437714  0.8973193659529304  0.1722816936572255
  0.9891013730681254  0.8098502293762817  0.6681145983924913
  0.4927593055418767  0.6726297563745305  0.3711979017273290
 -0.0085071244905239  0.9917814208012995  0.4316262145765198
  0.9912498129175208  0.9909031677545810  0.9316384088643558
  0.4903319520909188  0.4908150093774353  0.6079456141904160
  0.4902556872267310  0.4914618837957541  0.1079616536537687
 
  0.00000000E+00  0.00000000E+00  0.00000000E+00
  0.00000000E+00  0.00000000E+00  0.00000000E+00
  0.00000000E+00  0.00000000E+00  0.00000000E+00
  0.00000000E+00  0.00000000E+00  0.00000000E+00
  0.00000000E+00  0.00000000E+00  0.00000000E+00
  0.00000000E+00  0.00000000E+00  0.00000000E+00
  0.00000000E+00  0.00000000E+00  0.00000000E+00
  0.00000000E+00  0.00000000E+00  0.00000000E+00
  0.00000000E+00  0.00000000E+00  0.00000000E+00
  0.00000000E+00  0.00000000E+00  0.00000000E+00
  0.00000000E+00  0.00000000E+00  0.00000000E+00
  0.00000000E+00  0.00000000E+00  0.00000000E+00
  0.00000000E+00  0.00000000E+00  0.00000000E+00
  0.00000000E+00  0.00000000E+00  0.00000000E+00
  0.00000000E+00  0.00000000E+00  0.00000000E+00
  0.00000000E+00  0.00000000E+00  0.00000000E+00
  0.00000000E+00  0.00000000E+00  0.00000000E+00
  0.00000000E+00  0.00000000E+00  0.00000000E+00
  0.00000000E+00  0.00000000E+00  0.00000000E+00
  0.00000000E+00  0.00000000E+00  0.00000000E+00
