Poscar file generated with pyiron       
   1.00000000000000     
     8.4569788623516455    0.1987773238661399    0.4800582203115645
    -0.3532622274347664   13.9286415536641854    0.0920281537108608
    -0.3504637104568402   -0.0597159236395865    7.9913118719326368
   Cs   I    Pb
     4    12     4
Direct
  0.4895010313002054  0.1779410593316416  0.2642156402043657
 -0.0313615970881696  0.3615857291793799  0.7784018580646727
  0.9740299458490351  0.6773236171548126  0.2793732300102291
  0.4845913196318872  0.8621422014865155  0.7619272570928105
  0.2376936591322921  0.1170242109503943  0.6685200928419075
  0.2209747113639975  0.4221318037904718  0.3736703126254676
  0.7224172363307518  0.1093700049391024  0.6745432515697573
  0.7364199378942453  0.4299167355623709  0.3666726197170741
  0.4830947862638773  0.3380685007075065  0.8741661972995142
 -0.0239884136083254  0.2011506292352140  0.1678345984042809
  0.7291401150495290  0.6172491625136419  0.8664687521422287
  0.7292525964751514  0.9222559713911265  0.1751750054985173
  0.2124196404374880  0.6078262776903055  0.8736019596726491
  0.2459455422173908  0.9312228719351994  0.1676864061688538
 -0.0056028342264176  0.8381395226676789  0.6677284706344280
  0.4644073717064855  0.7011145339838788  0.3738895267689150
 -0.0151698374768855  0.0200798774442126  0.4306922650086235
  0.9843384396227021  0.0192308493728450  0.9307917140828915
  0.4740327190721847  0.5191511610885979  0.6107460632340882
  0.4741259717565536  0.5200587863247772  0.1106951894003508
 
  0.00000000E+00  0.00000000E+00  0.00000000E+00
  0.00000000E+00  0.00000000E+00  0.00000000E+00
  0.00000000E+00  0.00000000E+00  0.00000000E+00
  0.00000000E+00  0.00000000E+00  0.00000000E+00
  0.00000000E+00  0.00000000E+00  0.00000000E+00
  0.00000000E+00  0.00000000E+00  0.00000000E+00
  0.00000000E+00  0.00000000E+00  0.00000000E+00
  0.00000000E+00  0.00000000E+00  0.00000000E+00
  0.00000000E+00  0.00000000E+00  0.00000000E+00
  0.00000000E+00  0.00000000E+00  0.00000000E+00
  0.00000000E+00  0.00000000E+00  0.00000000E+00
  0.00000000E+00  0.00000000E+00  0.00000000E+00
  0.00000000E+00  0.00000000E+00  0.00000000E+00
  0.00000000E+00  0.00000000E+00  0.00000000E+00
  0.00000000E+00  0.00000000E+00  0.00000000E+00
  0.00000000E+00  0.00000000E+00  0.00000000E+00
  0.00000000E+00  0.00000000E+00  0.00000000E+00
  0.00000000E+00  0.00000000E+00  0.00000000E+00
  0.00000000E+00  0.00000000E+00  0.00000000E+00
  0.00000000E+00  0.00000000E+00  0.00000000E+00
