Poscar file generated with pyiron       
   1.00000000000000     
     8.2619378674199204   -0.1832353557770408    1.2612853021530390
     0.2393237102059481   14.4974328991572232    0.4149341606864162
     0.1789489830273900   -0.1949185245554258    7.9096896380485910
   Cs   I    Pb
     4    12     4
Direct
  0.4900153883285531  0.2007751884740544  0.2386431714275383
 -0.0260401781834141  0.3650395609266455  0.7992677322061019
  0.9731550856994526  0.7051793750840610  0.2953602445508740
  0.4889259766595930  0.8607710547627407  0.7416090335497207
  0.2457693145309871  0.1300958889536036  0.6802714342499573
  0.2178877740108394  0.4348147565197898  0.3573854865126396
  0.7099056376809647  0.1098692153184929  0.7794984287644070
  0.7535459372065472  0.4561447151777285  0.2576744816932967
  0.4810786329737937  0.3569451833915304  0.8238772405410992
  0.9829100581607021  0.2085747744458957  0.2129202115982874
  0.7410925749686847  0.6224980098753810  0.7568487962473003
  0.7212593630877336  0.9436561720521922  0.2805732168619517
  0.2027242221234676  0.6154997811972082  0.8596864465798969
  0.2597065890541009  0.9494970236354485  0.1775449290769954
  0.0072176098263376  0.8575374943487825  0.7125285755765465
  0.4548413711176940  0.7079367402887431  0.3257681611599628
  0.9881786453566617  0.0353111167558234  0.4783682539352532
 -0.0122258299406231  0.0309703606853996 -0.0223406099195266
  0.4748986081686553  0.5301350846391893  0.5587635404406217
  0.4751657166406954  0.5345806633636816  0.0594092981443945
 
  0.00000000E+00  0.00000000E+00  0.00000000E+00
  0.00000000E+00  0.00000000E+00  0.00000000E+00
  0.00000000E+00  0.00000000E+00  0.00000000E+00
  0.00000000E+00  0.00000000E+00  0.00000000E+00
  0.00000000E+00  0.00000000E+00  0.00000000E+00
  0.00000000E+00  0.00000000E+00  0.00000000E+00
  0.00000000E+00  0.00000000E+00  0.00000000E+00
  0.00000000E+00  0.00000000E+00  0.00000000E+00
  0.00000000E+00  0.00000000E+00  0.00000000E+00
  0.00000000E+00  0.00000000E+00  0.00000000E+00
  0.00000000E+00  0.00000000E+00  0.00000000E+00
  0.00000000E+00  0.00000000E+00  0.00000000E+00
  0.00000000E+00  0.00000000E+00  0.00000000E+00
  0.00000000E+00  0.00000000E+00  0.00000000E+00
  0.00000000E+00  0.00000000E+00  0.00000000E+00
  0.00000000E+00  0.00000000E+00  0.00000000E+00
  0.00000000E+00  0.00000000E+00  0.00000000E+00
  0.00000000E+00  0.00000000E+00  0.00000000E+00
  0.00000000E+00  0.00000000E+00  0.00000000E+00
  0.00000000E+00  0.00000000E+00  0.00000000E+00
