Poscar file generated with pyiron       
   1.00000000000000     
     8.4688644111905447    0.0112616552282693   -0.0517361720364555
    -0.0465613333679354   13.9236611389146940   -0.0308662167109148
     0.0801581878064394    0.0144343565086624    7.9966536312024123
   Cs   I    Pb
     4    12     4
Direct
  0.4866916172093077  0.1463668727081434  0.2636318066725520
  0.9786332137764776  0.3302669897215210  0.7789606704633167
  0.9821642394426782  0.6475715316818366  0.2766687346189097
  0.4824190285697390  0.8308616724605615  0.7634121288173124
  0.2391193906846446  0.0830141002884097  0.6724279398163895
  0.2272354102811170  0.3902881313063835  0.3712678691552343
  0.7233045946304727  0.0801572583919938  0.6733702283230084
  0.7435413953433669  0.3999923641493019  0.3681598350275224
  0.4865769644781485  0.3067639785062788  0.8745037305639194
  0.9767718438784503  0.1697604014873577  0.1688159418433831
  0.7353801384463730  0.5850435332305156  0.8695926184821212
  0.7257756084726847  0.8926016243073348  0.1743173886978053
  0.2195331967748881  0.5779513591472150  0.8700781087847522
  0.2420243998749485  0.8973726990804570  0.1711056789707603
  0.9863333165675995  0.8063632543129400  0.6684984349899995
  0.4694564977114135  0.6698764781855325  0.3749414381966666
  0.9829567460924681  0.9886849325828915  0.4324144475035623
  0.9819273823684265  0.9874755236910344  0.9320341934257294
  0.4807739582760295  0.4876506409245156  0.6107049544194464
  0.4804732149704251  0.4889569144398457  0.1108129734619923
 
  0.00000000E+00  0.00000000E+00  0.00000000E+00
  0.00000000E+00  0.00000000E+00  0.00000000E+00
  0.00000000E+00  0.00000000E+00  0.00000000E+00
  0.00000000E+00  0.00000000E+00  0.00000000E+00
  0.00000000E+00  0.00000000E+00  0.00000000E+00
  0.00000000E+00  0.00000000E+00  0.00000000E+00
  0.00000000E+00  0.00000000E+00  0.00000000E+00
  0.00000000E+00  0.00000000E+00  0.00000000E+00
  0.00000000E+00  0.00000000E+00  0.00000000E+00
  0.00000000E+00  0.00000000E+00  0.00000000E+00
  0.00000000E+00  0.00000000E+00  0.00000000E+00
  0.00000000E+00  0.00000000E+00  0.00000000E+00
  0.00000000E+00  0.00000000E+00  0.00000000E+00
  0.00000000E+00  0.00000000E+00  0.00000000E+00
  0.00000000E+00  0.00000000E+00  0.00000000E+00
  0.00000000E+00  0.00000000E+00  0.00000000E+00
  0.00000000E+00  0.00000000E+00  0.00000000E+00
  0.00000000E+00  0.00000000E+00  0.00000000E+00
  0.00000000E+00  0.00000000E+00  0.00000000E+00
  0.00000000E+00  0.00000000E+00  0.00000000E+00
