Poscar file generated with pyiron       
   1.00000000000000     
     8.4718328068864839    0.1752944291339010    0.0043621156070823
    -0.2667057793218884   13.9234366002732735   -0.0415640226221605
     0.0751549241790911    0.0259100827881872    8.0014756370378919
   Cs   I    Pb
     4    12     4
Direct
  0.5111882119494997  0.1640969019003397  0.2496740467903112
  0.0013027662890750  0.3483561213945413  0.7660215085981520
 -0.0013995575012088  0.6644967056397613  0.2653777679688212
  0.5152053521525125  0.8482807573093430  0.7502989009131471
  0.2710473613744624  0.0962214218606358  0.6554329806925840
  0.2418778514030563  0.4166069582854691  0.3604682043325916
  0.7547863496858930  0.1024349159239378  0.6610635728409048
  0.7581219314509111  0.4100994876205669  0.3547897752206065
  0.4956373028497002  0.3247525402970770  0.8612302860015284
  0.0177259847960140  0.1878122111690811  0.1546604783469996
  0.7629505122547807  0.5972057143259194  0.8550085937838469
  0.7499925526091263  0.9155816340228460  0.1608180281725864
  0.2473050985176828  0.6022984949392904  0.8602083663958073
  0.2655537892029138  0.9100463640194576  0.1555317675612232
  0.0046321563806132  0.8246589584489575  0.6545144283754969
  0.5082729725223315  0.6880409599998268  0.3612497812148924
  0.0108506624382215  0.0066349597750659  0.4178482405927789
  0.0113485827364146  0.0057887362145037  0.9177933965103919
  0.5021249986394126  0.5060300582517857  0.5980994631772394
  0.5018706786129008  0.5068411977641382  0.0980505894978331
 
  0.00000000E+00  0.00000000E+00  0.00000000E+00
  0.00000000E+00  0.00000000E+00  0.00000000E+00
  0.00000000E+00  0.00000000E+00  0.00000000E+00
  0.00000000E+00  0.00000000E+00  0.00000000E+00
  0.00000000E+00  0.00000000E+00  0.00000000E+00
  0.00000000E+00  0.00000000E+00  0.00000000E+00
  0.00000000E+00  0.00000000E+00  0.00000000E+00
  0.00000000E+00  0.00000000E+00  0.00000000E+00
  0.00000000E+00  0.00000000E+00  0.00000000E+00
  0.00000000E+00  0.00000000E+00  0.00000000E+00
  0.00000000E+00  0.00000000E+00  0.00000000E+00
  0.00000000E+00  0.00000000E+00  0.00000000E+00
  0.00000000E+00  0.00000000E+00  0.00000000E+00
  0.00000000E+00  0.00000000E+00  0.00000000E+00
  0.00000000E+00  0.00000000E+00  0.00000000E+00
  0.00000000E+00  0.00000000E+00  0.00000000E+00
  0.00000000E+00  0.00000000E+00  0.00000000E+00
  0.00000000E+00  0.00000000E+00  0.00000000E+00
  0.00000000E+00  0.00000000E+00  0.00000000E+00
  0.00000000E+00  0.00000000E+00  0.00000000E+00
