Poscar file generated with pyiron       
   1.00000000000000     
     8.2749531117585722   -0.1734961559395459    1.2754464931894660
     0.1766310863701579   14.5801210574084976    0.5666890430743948
     0.1413965734971871   -0.2134407615128318    7.8703193241614491
   Cs   I    Pb
     4    12     4
Direct
  0.4908649344948733  0.1937597032869793  0.2296746171039547
 -0.0155001855564663  0.3628002542566922  0.7884423162253207
  0.9821608312464847  0.7049421124771522  0.2784149504334594
  0.4928961077078230  0.8515321470552802  0.7402524535695398
  0.2405225349312236  0.1323823552893260  0.6772888414075146
  0.2348901729129738  0.4243896637322790  0.3412392506529459
  0.7044312305386992  0.0982396843467341  0.7743623306124587
  0.7709013535933525  0.4582203285520862  0.2442284705749637
  0.5016273506898774  0.3524074599819772  0.8069139427421569
  0.9735993142285533  0.2042466448479809  0.2110739368499662
  0.7496025786341328  0.6209412480592563  0.7408525145496807
  0.7261831347820308  0.9355623545261810  0.2777149411187063
  0.2108185534654960  0.6068214617175394  0.8446345692489939
  0.2648385137924336  0.9499885070742627  0.1738940954617015
  0.0184465207814290  0.8539848702907055  0.7113266572350213
  0.4571922879756680  0.7027212681499062  0.3065330482653725
  0.9890064183085228  0.0312442257051237  0.4752051053651496
  0.9884837905781946  0.0274423404435309 -0.0264951002195902
  0.4865058148091355  0.5256185586962875  0.5431240518068324
  0.4869903404351292  0.5290601054760957  0.0448420415691427
 
  0.00000000E+00  0.00000000E+00  0.00000000E+00
  0.00000000E+00  0.00000000E+00  0.00000000E+00
  0.00000000E+00  0.00000000E+00  0.00000000E+00
  0.00000000E+00  0.00000000E+00  0.00000000E+00
  0.00000000E+00  0.00000000E+00  0.00000000E+00
  0.00000000E+00  0.00000000E+00  0.00000000E+00
  0.00000000E+00  0.00000000E+00  0.00000000E+00
  0.00000000E+00  0.00000000E+00  0.00000000E+00
  0.00000000E+00  0.00000000E+00  0.00000000E+00
  0.00000000E+00  0.00000000E+00  0.00000000E+00
  0.00000000E+00  0.00000000E+00  0.00000000E+00
  0.00000000E+00  0.00000000E+00  0.00000000E+00
  0.00000000E+00  0.00000000E+00  0.00000000E+00
  0.00000000E+00  0.00000000E+00  0.00000000E+00
  0.00000000E+00  0.00000000E+00  0.00000000E+00
  0.00000000E+00  0.00000000E+00  0.00000000E+00
  0.00000000E+00  0.00000000E+00  0.00000000E+00
  0.00000000E+00  0.00000000E+00  0.00000000E+00
  0.00000000E+00  0.00000000E+00  0.00000000E+00
  0.00000000E+00  0.00000000E+00  0.00000000E+00
