Poscar file generated with pyiron       
   1.00000000000000     
     8.3022104470703049    0.1097501781227872    1.0380463343652444
    -0.1427553746626669   14.7297041477470270   -0.7644710296031881
     0.2841791879490391   -0.0955060341124867    7.8096248200030551
   Cs   I    Pb
     4    12     4
Direct
  0.4777511439075763  0.2025083565182035  0.2385447840534383
  0.9787378048533542  0.3366621999751740  0.7272452420283274
  0.9868476662399926  0.6751113464546886  0.2618180870461486
  0.4691116684664501  0.8638622176854986  0.7024255489871365
  0.2413853618723399  0.0958199368377978  0.6659697540764925
  0.2148082738697208  0.4431246400600929  0.2987413347911390
  0.7059014852188590  0.1149738580535506  0.7701580789596850
  0.7502671311198066  0.4240976616620895  0.1944890989823526
  0.4541176191421499  0.3472311754983619  0.7436193846466234
  0.0020192359252306  0.1916625826271560  0.2211631812623417
  0.7836095762975673  0.5811789393012045  0.7165927649794058
  0.6720262802465141  0.9577582029740866  0.2481307861610068
  0.2475736947030220  0.6315498416046729  0.8072682177990982
  0.2081712650503009  0.9073767870679507  0.1573663892314148
  0.9437568338577441  0.8432590475885581  0.6876045411741699
  0.5119968273452423  0.6957548337778492  0.2771412844808556
  0.9634457986578385  0.0174009667046701  0.4573511364398809
  0.9642563213673679  0.0164586210507575  0.9609086586814640
  0.4924633318768191  0.5215299931139701  0.5073279720867815
  0.4916054310970164  0.5225518459395759  0.0038092709271505
 
  0.00000000E+00  0.00000000E+00  0.00000000E+00
  0.00000000E+00  0.00000000E+00  0.00000000E+00
  0.00000000E+00  0.00000000E+00  0.00000000E+00
  0.00000000E+00  0.00000000E+00  0.00000000E+00
  0.00000000E+00  0.00000000E+00  0.00000000E+00
  0.00000000E+00  0.00000000E+00  0.00000000E+00
  0.00000000E+00  0.00000000E+00  0.00000000E+00
  0.00000000E+00  0.00000000E+00  0.00000000E+00
  0.00000000E+00  0.00000000E+00  0.00000000E+00
  0.00000000E+00  0.00000000E+00  0.00000000E+00
  0.00000000E+00  0.00000000E+00  0.00000000E+00
  0.00000000E+00  0.00000000E+00  0.00000000E+00
  0.00000000E+00  0.00000000E+00  0.00000000E+00
  0.00000000E+00  0.00000000E+00  0.00000000E+00
  0.00000000E+00  0.00000000E+00  0.00000000E+00
  0.00000000E+00  0.00000000E+00  0.00000000E+00
  0.00000000E+00  0.00000000E+00  0.00000000E+00
  0.00000000E+00  0.00000000E+00  0.00000000E+00
  0.00000000E+00  0.00000000E+00  0.00000000E+00
  0.00000000E+00  0.00000000E+00  0.00000000E+00
