Poscar file generated with pyiron       
   1.00000000000000     
     8.4665858204945064    0.0209112954396136   -0.1928251120698339
    -0.0391010711315548   13.9294315824319650    0.0925217525965777
     0.2108308865511974   -0.0465879295575060    7.9887560162961790
   Cs   I    Pb
     4    12     4
Direct
  0.4771299581629197  0.1516054432217565  0.2599770966196521
  0.9719135831697480  0.3340034628250695  0.7736289317166923
  0.9727680553416921  0.6515894612036266  0.2728590578219858
  0.4746694071555841  0.8338482234567215  0.7595955546243012
  0.2317207326563609  0.0865555586516918  0.6679830593281484
  0.2164855868305836  0.3981487644700074  0.3651631486631685
  0.7149554710164716  0.0849983728338537  0.6702457920739925
  0.7328846704550178  0.4013557709821177  0.3636281831075720
  0.4734708339994347  0.3112112514821959  0.8689459053392267
  0.9711743763774402  0.1744481352266699  0.1646169538068610
  0.7309933537755016  0.5861508355321937  0.8631866721568703
  0.7174893141626678  0.8982533600036197  0.1701323119157206
  0.2148584259919934  0.5853656001436276  0.8653758369943361
  0.2335177371078886  0.9013894853371865  0.1684328405975067
  0.9762935266646924  0.8111982727928121  0.6648954007835057
  0.4691098476093656  0.6743625418625616  0.3685845574845913
  0.9742928044684608  0.9933729548225886  0.4287863216531829
  0.9743233662489320  0.9923964005205916  0.9285298649119794
  0.4728810634157009  0.4921555140373409  0.6050078796344923
  0.4731384595352726  0.4932793667732234  0.1050237398579552
 
  0.00000000E+00  0.00000000E+00  0.00000000E+00
  0.00000000E+00  0.00000000E+00  0.00000000E+00
  0.00000000E+00  0.00000000E+00  0.00000000E+00
  0.00000000E+00  0.00000000E+00  0.00000000E+00
  0.00000000E+00  0.00000000E+00  0.00000000E+00
  0.00000000E+00  0.00000000E+00  0.00000000E+00
  0.00000000E+00  0.00000000E+00  0.00000000E+00
  0.00000000E+00  0.00000000E+00  0.00000000E+00
  0.00000000E+00  0.00000000E+00  0.00000000E+00
  0.00000000E+00  0.00000000E+00  0.00000000E+00
  0.00000000E+00  0.00000000E+00  0.00000000E+00
  0.00000000E+00  0.00000000E+00  0.00000000E+00
  0.00000000E+00  0.00000000E+00  0.00000000E+00
  0.00000000E+00  0.00000000E+00  0.00000000E+00
  0.00000000E+00  0.00000000E+00  0.00000000E+00
  0.00000000E+00  0.00000000E+00  0.00000000E+00
  0.00000000E+00  0.00000000E+00  0.00000000E+00
  0.00000000E+00  0.00000000E+00  0.00000000E+00
  0.00000000E+00  0.00000000E+00  0.00000000E+00
  0.00000000E+00  0.00000000E+00  0.00000000E+00
