Poscar file generated with pyiron       
   1.00000000000000     
     8.4766822001916253    0.0612200758581491   -0.1074570332924585
    -0.1218028228056161   13.9397536679481551    0.1514418265944907
     0.1186598463374492   -0.0849941598326241    7.9911944378112283
   Cs   I    Pb
     4    12     4
Direct
  0.4743110089883469  0.1473698934686142  0.2692166757766950
  0.9678978143350391  0.3296160759333993  0.7821685616898799
  0.9715903037220877  0.6468410825955643  0.2824838588286152
  0.4697052011510845  0.8294767479213748  0.7689068015409390
  0.2262851041747236  0.0850107128669727  0.6767170908154528
  0.2149323892552407  0.3918386928157661  0.3740121053912349
  0.7098892142759603  0.0777413065051842  0.6778234962813733
  0.7312348197818804  0.3985452898237880  0.3734614325611309
  0.4775207111093604  0.3067048113139082  0.8779239860770008
  0.9635533413518779  0.1699120798612665  0.1729323888621419
  0.7253861909032532  0.5846930043840075  0.8730478118110476
  0.7164744836970691  0.8915617105445912  0.1777609386562414
  0.2088433843399069  0.5779049824427464  0.8742777200177313
  0.2329040227755939  0.8990887358642452  0.1770556065881281
  0.9792325341295683  0.8066918890592565  0.6730674665569834
  0.4623663353425905  0.6699497166327955  0.3779497528935359
  0.9715688863934995  0.9887733072540055  0.4367011032174011
  0.9712186919795248  0.9878165161106176  0.9367264083311967
  0.4695840605276232  0.4877715326560862  0.6143037681403657
  0.4702311100762486  0.4888796020591311  0.1143183166033984
 
  0.00000000E+00  0.00000000E+00  0.00000000E+00
  0.00000000E+00  0.00000000E+00  0.00000000E+00
  0.00000000E+00  0.00000000E+00  0.00000000E+00
  0.00000000E+00  0.00000000E+00  0.00000000E+00
  0.00000000E+00  0.00000000E+00  0.00000000E+00
  0.00000000E+00  0.00000000E+00  0.00000000E+00
  0.00000000E+00  0.00000000E+00  0.00000000E+00
  0.00000000E+00  0.00000000E+00  0.00000000E+00
  0.00000000E+00  0.00000000E+00  0.00000000E+00
  0.00000000E+00  0.00000000E+00  0.00000000E+00
  0.00000000E+00  0.00000000E+00  0.00000000E+00
  0.00000000E+00  0.00000000E+00  0.00000000E+00
  0.00000000E+00  0.00000000E+00  0.00000000E+00
  0.00000000E+00  0.00000000E+00  0.00000000E+00
  0.00000000E+00  0.00000000E+00  0.00000000E+00
  0.00000000E+00  0.00000000E+00  0.00000000E+00
  0.00000000E+00  0.00000000E+00  0.00000000E+00
  0.00000000E+00  0.00000000E+00  0.00000000E+00
  0.00000000E+00  0.00000000E+00  0.00000000E+00
  0.00000000E+00  0.00000000E+00  0.00000000E+00
