Poscar file generated with pyiron       
   1.00000000000000     
     8.4550300621362151    0.1313460751843568    0.4069231928332789
    -0.2084303697474251   13.8923407905269141    0.0795681420837182
    -0.3063584978467815   -0.0523692860796304    8.0051282846453375
   Cs   I    Pb
     4    12     4
Direct
  0.4778455356413988  0.1666483078549413  0.2717594265751293
  0.9669644800565780  0.3520277178915101  0.7895641969156753
  0.9649677333636715  0.6668452613484053  0.2886259617954639
  0.4801392653989590  0.8517628028614970  0.7729975064404108
  0.2355200931782414  0.1008501616479741  0.6767165089885837
  0.2088743354402423  0.4183291986574888  0.3845128970370086
  0.7194026042161018  0.1051559428607044  0.6828020682928061
  0.7249847440837325  0.4137499659840025  0.3790102190748542
  0.4635817170708961  0.3276007370232540  0.8849469969008054
 -0.0194501401198199  0.1914277874656581  0.1761284342780513
  0.7277775665850985  0.6016363224565021  0.8792693341564066
  0.7170782867028080  0.9169739945609249  0.1817725394767510
  0.2124147173710874  0.6045533151600926  0.8841710501735831
  0.2323838534517850  0.9147313747166013  0.1776128201941187
  0.9729643690053809  0.8275869614129033  0.6763097990979057
  0.4721312335587506  0.6912296222304817  0.3851902249973960
 -0.0240838442914207  0.0098339668746816  0.4392579887609409
 -0.0229144251169280  0.0091904550351482  0.9390437405512672
  0.4684003940373797  0.5089265966841265  0.6222986715260009
  0.4677054467945193  0.5098871706840966  0.1223393131825580
 
  0.00000000E+00  0.00000000E+00  0.00000000E+00
  0.00000000E+00  0.00000000E+00  0.00000000E+00
  0.00000000E+00  0.00000000E+00  0.00000000E+00
  0.00000000E+00  0.00000000E+00  0.00000000E+00
  0.00000000E+00  0.00000000E+00  0.00000000E+00
  0.00000000E+00  0.00000000E+00  0.00000000E+00
  0.00000000E+00  0.00000000E+00  0.00000000E+00
  0.00000000E+00  0.00000000E+00  0.00000000E+00
  0.00000000E+00  0.00000000E+00  0.00000000E+00
  0.00000000E+00  0.00000000E+00  0.00000000E+00
  0.00000000E+00  0.00000000E+00  0.00000000E+00
  0.00000000E+00  0.00000000E+00  0.00000000E+00
  0.00000000E+00  0.00000000E+00  0.00000000E+00
  0.00000000E+00  0.00000000E+00  0.00000000E+00
  0.00000000E+00  0.00000000E+00  0.00000000E+00
  0.00000000E+00  0.00000000E+00  0.00000000E+00
  0.00000000E+00  0.00000000E+00  0.00000000E+00
  0.00000000E+00  0.00000000E+00  0.00000000E+00
  0.00000000E+00  0.00000000E+00  0.00000000E+00
  0.00000000E+00  0.00000000E+00  0.00000000E+00
