Poscar file generated with pyiron       
   1.00000000000000     
     8.4670043905514856    0.1333816494906225   -0.0467403595979301
    -0.2247300082230055   13.9104536838888109   -0.0453943863381386
     0.1794201724707525    0.0343432862839042    8.0007476384290843
   Cs   I    Pb
     4    12     4
Direct
  0.5187183509548224  0.1597308222383781  0.2565891872136077
 -0.0079606513600187  0.3445990891994662  0.7732840523453230
  0.9949153893954188  0.6590453941913810  0.2749907673365400
  0.5167410632294488  0.8452425401626598  0.7548597260564556
  0.2678902862716104  0.0981099834029383  0.6599153839729812
  0.2436952999535488  0.4058230477624978  0.3704497855311962
  0.7527770323933617  0.0936238561889868  0.6679485484409943
  0.7588219536765833  0.4107439571745615  0.3614376129945158
  0.5046391814357306  0.3203740719866727  0.8694790219261260
  0.0072142728816435  0.1838516026079574  0.1602365716594740
  0.7537575213239069  0.5987115005882915  0.8610144091069558
  0.7573140176216645  0.9057050922248852  0.1693760440647837
  0.2372847952955160  0.5912260189886547  0.8709198584245812
  0.2738246176313354  0.9127339928040185  0.1585425234099112
  0.0204491771284581  0.8206626707674268  0.6603716999959313
  0.4905158883436672  0.6835292087927545  0.3694250523115728
  0.0144582998367856  0.0026560146199692  0.4233440207212709
  0.0133359710248099  0.0018457699419772  0.9234673184668813
  0.4971937754842959  0.5015291207285298  0.6064766366549571
  0.4977056956064767  0.5023643049212331  0.1063907270615101
 
  0.00000000E+00  0.00000000E+00  0.00000000E+00
  0.00000000E+00  0.00000000E+00  0.00000000E+00
  0.00000000E+00  0.00000000E+00  0.00000000E+00
  0.00000000E+00  0.00000000E+00  0.00000000E+00
  0.00000000E+00  0.00000000E+00  0.00000000E+00
  0.00000000E+00  0.00000000E+00  0.00000000E+00
  0.00000000E+00  0.00000000E+00  0.00000000E+00
  0.00000000E+00  0.00000000E+00  0.00000000E+00
  0.00000000E+00  0.00000000E+00  0.00000000E+00
  0.00000000E+00  0.00000000E+00  0.00000000E+00
  0.00000000E+00  0.00000000E+00  0.00000000E+00
  0.00000000E+00  0.00000000E+00  0.00000000E+00
  0.00000000E+00  0.00000000E+00  0.00000000E+00
  0.00000000E+00  0.00000000E+00  0.00000000E+00
  0.00000000E+00  0.00000000E+00  0.00000000E+00
  0.00000000E+00  0.00000000E+00  0.00000000E+00
  0.00000000E+00  0.00000000E+00  0.00000000E+00
  0.00000000E+00  0.00000000E+00  0.00000000E+00
  0.00000000E+00  0.00000000E+00  0.00000000E+00
  0.00000000E+00  0.00000000E+00  0.00000000E+00
