Poscar file generated with pyiron       
   1.00000000000000     
     8.4570978213631030   -0.1077419538081404    0.4599900517288704
     0.1457232987962036   13.8869762911714751    0.2334821458425001
    -0.3964160933707763   -0.1284380173518237    8.0030412107608377
   Cs   I    Pb
     4    12     4
Direct
  0.4788609091401467  0.1637208125021945  0.2708874957620929
 -0.0290879657142460  0.3492593240938525  0.7869648400399791
  0.9734668342450571  0.6634217892606942  0.2866924498516554
  0.4768688075543291  0.8492334072110052  0.7701023918494856
  0.2332213645758279  0.1015336552758593  0.6764049062056279
  0.2177177588250171  0.4107737596224527  0.3818757227330626
  0.7183658746712068  0.0985040559178510  0.6778461854483031
  0.7332134764335373  0.4143891626273010  0.3790307738584179
  0.4787830390834367  0.3242328371730472  0.8840209441075130
  0.9745739288587305  0.1881803151221159  0.1736220666393974
  0.7292446976551721  0.6024422414052806  0.8795511324054267
  0.7204403495042361  0.9112980507149360  0.1787098523866941
  0.2143567689658304  0.5974364448410987  0.8813253323873834
  0.2357252050077610  0.9139708979613551  0.1754138129415745
  0.9816143069359161  0.8243834114353596  0.6735799982418937
  0.4691932668436042  0.6880213605078435  0.3839866562968939
  0.9777538366629995  0.0066798103008515  0.4368016518299540
 -0.0231439491713511  0.0058468463601562  0.9368687457548063
  0.4736429075295602  0.5056135100957599  0.6209066100642051
  0.4735237220418234  0.5067033267518071  0.1208328080418817
 
  0.00000000E+00  0.00000000E+00  0.00000000E+00
  0.00000000E+00  0.00000000E+00  0.00000000E+00
  0.00000000E+00  0.00000000E+00  0.00000000E+00
  0.00000000E+00  0.00000000E+00  0.00000000E+00
  0.00000000E+00  0.00000000E+00  0.00000000E+00
  0.00000000E+00  0.00000000E+00  0.00000000E+00
  0.00000000E+00  0.00000000E+00  0.00000000E+00
  0.00000000E+00  0.00000000E+00  0.00000000E+00
  0.00000000E+00  0.00000000E+00  0.00000000E+00
  0.00000000E+00  0.00000000E+00  0.00000000E+00
  0.00000000E+00  0.00000000E+00  0.00000000E+00
  0.00000000E+00  0.00000000E+00  0.00000000E+00
  0.00000000E+00  0.00000000E+00  0.00000000E+00
  0.00000000E+00  0.00000000E+00  0.00000000E+00
  0.00000000E+00  0.00000000E+00  0.00000000E+00
  0.00000000E+00  0.00000000E+00  0.00000000E+00
  0.00000000E+00  0.00000000E+00  0.00000000E+00
  0.00000000E+00  0.00000000E+00  0.00000000E+00
  0.00000000E+00  0.00000000E+00  0.00000000E+00
  0.00000000E+00  0.00000000E+00  0.00000000E+00
