Poscar file generated with pyiron       
   1.00000000000000     
     8.2800259873143531    0.2539250475064195    1.1548861677355882
    -0.3346702829733829   14.5280586487519248   -0.5317430181881179
     0.2742747730731398    0.2479354310201008    7.8838188055104146
   Cs   I    Pb
     4    12     4
Direct
  0.4676106589101039  0.1938895922741880  0.2178831206320389
  0.9533310068295214  0.3459228133128834  0.7644367848907416
  0.9548371679036630  0.6878769119719566  0.2707533526988001
  0.4657772482815082  0.8516493262705338  0.7120243251897883
  0.2398556808910488  0.1001415343861888  0.6534402925751033
  0.1816113455588564  0.4396022455679511  0.3296642705334806
  0.7010595356785139  0.1113646408166118  0.7569010932518214
  0.7204225256813549  0.4286163689344970  0.2259282051706513
  0.4314425414795319  0.3449557888400368  0.7939624365687837
  0.9895827048351927  0.1949692956358410  0.1891619265233355
  0.7366426297262891  0.5939860007153289  0.7271116296645916
  0.6846265972909902  0.9461569499460071  0.2559787298753226
  0.2003190224911469  0.6198493636546912  0.8262111621803753
  0.2209373706840908  0.9199538084049805  0.1566691192983203
  0.9543139844265371  0.8442904418047812  0.6913129682474458
  0.4668907650606893  0.6956445676156796  0.2915755596634355
  0.9653007519758484  0.0215735766564913  0.4538426442618362
  0.9655673868082848  0.0174524347579773 -0.0450259606184911
  0.4561976552245410  0.5183747658981563  0.5292074479159469
  0.4555760249639646  0.5223914845179665  0.0281751797063576
 
  0.00000000E+00  0.00000000E+00  0.00000000E+00
  0.00000000E+00  0.00000000E+00  0.00000000E+00
  0.00000000E+00  0.00000000E+00  0.00000000E+00
  0.00000000E+00  0.00000000E+00  0.00000000E+00
  0.00000000E+00  0.00000000E+00  0.00000000E+00
  0.00000000E+00  0.00000000E+00  0.00000000E+00
  0.00000000E+00  0.00000000E+00  0.00000000E+00
  0.00000000E+00  0.00000000E+00  0.00000000E+00
  0.00000000E+00  0.00000000E+00  0.00000000E+00
  0.00000000E+00  0.00000000E+00  0.00000000E+00
  0.00000000E+00  0.00000000E+00  0.00000000E+00
  0.00000000E+00  0.00000000E+00  0.00000000E+00
  0.00000000E+00  0.00000000E+00  0.00000000E+00
  0.00000000E+00  0.00000000E+00  0.00000000E+00
  0.00000000E+00  0.00000000E+00  0.00000000E+00
  0.00000000E+00  0.00000000E+00  0.00000000E+00
  0.00000000E+00  0.00000000E+00  0.00000000E+00
  0.00000000E+00  0.00000000E+00  0.00000000E+00
  0.00000000E+00  0.00000000E+00  0.00000000E+00
  0.00000000E+00  0.00000000E+00  0.00000000E+00
