Poscar file generated with pyiron       
   1.00000000000000     
     8.2576170973849852    0.0942742123896318    1.2896823937613666
    -0.1169902614877421   14.6342871323192458   -0.0128415429955864
     0.0544945341696736    0.0974573230324902    7.8570463641263943
   Cs   I    Pb
     4    12     4
Direct
  0.4694273187668835  0.1898480050563134  0.2086554028839704
 -0.0161712889470735  0.3738359972188767  0.7813882265009826
  0.9686439125068416  0.7125508568372863  0.2628454188482789
  0.4784051793021434  0.8543561653846521  0.7228501972077535
  0.2164344341237148  0.1392973509959795  0.6599491407968048
  0.2378037166979629  0.4229135232527040  0.3305311355044566
  0.6804475474619001  0.0982588026315733  0.7491307576472448
  0.7727285773867836  0.4683378967918598  0.2402415542125807
  0.5031654852532492  0.3567158156070163  0.7987605121128059
 -0.0492339321270790  0.2081456655912748  0.1916059127517323
  0.7414592698394242  0.6269658814914292  0.7373809293631491
  0.7067487586420323  0.9398219869735389  0.2536562436190736
  0.2066011740372171  0.6117794539475999  0.8361078153431108
  0.2428618722088478  0.9513062127928200  0.1539900906876066
  0.0046030456941072  0.8590636698988003  0.6900167888867171
  0.4422368537778751  0.7055278727908675  0.3014494430604279
  0.9685143610344955  0.0354574015785504  0.4541381894734777
  0.9677289993150399  0.0321975609794504  0.9516509137886734
  0.4830252103041582  0.5291591284109595  0.5361035117006360
  0.4830254479805613  0.5327191132464276  0.0389071477372036
 
  0.00000000E+00  0.00000000E+00  0.00000000E+00
  0.00000000E+00  0.00000000E+00  0.00000000E+00
  0.00000000E+00  0.00000000E+00  0.00000000E+00
  0.00000000E+00  0.00000000E+00  0.00000000E+00
  0.00000000E+00  0.00000000E+00  0.00000000E+00
  0.00000000E+00  0.00000000E+00  0.00000000E+00
  0.00000000E+00  0.00000000E+00  0.00000000E+00
  0.00000000E+00  0.00000000E+00  0.00000000E+00
  0.00000000E+00  0.00000000E+00  0.00000000E+00
  0.00000000E+00  0.00000000E+00  0.00000000E+00
  0.00000000E+00  0.00000000E+00  0.00000000E+00
  0.00000000E+00  0.00000000E+00  0.00000000E+00
  0.00000000E+00  0.00000000E+00  0.00000000E+00
  0.00000000E+00  0.00000000E+00  0.00000000E+00
  0.00000000E+00  0.00000000E+00  0.00000000E+00
  0.00000000E+00  0.00000000E+00  0.00000000E+00
  0.00000000E+00  0.00000000E+00  0.00000000E+00
  0.00000000E+00  0.00000000E+00  0.00000000E+00
  0.00000000E+00  0.00000000E+00  0.00000000E+00
  0.00000000E+00  0.00000000E+00  0.00000000E+00
