Poscar file generated with pyiron       
   1.00000000000000     
     8.4574809092310517   -0.1703819442396503    0.5567032440306396
     0.3026539536518387   13.9652399913564089    0.2524434602592050
    -0.4399257966834857   -0.1414550234429173    7.9606659691067145
   Cs   I    Pb
     4    12     4
Direct
  0.4703927259451228  0.1762117811088960  0.2585957232311538
  0.9651025177118546  0.3580935232123618  0.7728518888035306
  0.9588720116868730  0.6761405803840477  0.2724978982582802
  0.4781703191820105  0.8579354552844856  0.7594738376221128
  0.2362353331279443  0.1022276713957380  0.6658793480881515
  0.1995466219112944  0.4317998208298776  0.3660258859558485
  0.7189579062592744  0.1166160528875613  0.6717976191841657
  0.7165776353543089  0.4177041755846881  0.3595914398150248
  0.4485098174654841  0.3359140629885722  0.8671252681601955
 -0.0133187351611573  0.1982242267825992  0.1645084341098521
  0.7283623206278941  0.6035595899449309  0.8600008048243299
  0.7075446631444686  0.9301206471211184  0.1719560091808759
  0.2122187364807077  0.6168417001677043  0.8655295444245640
  0.2239856716439635  0.9175236706200222  0.1656903485778551
  0.9578003486838602  0.8358602186656253  0.6643252844109520
  0.4780379649648517  0.6982604968283574  0.3672176128127526
  0.9719967609218270  0.0175466412988699  0.4276567935738035
  0.9727005047474994  0.0165352776618631  0.9280136374793110
  0.4641256113027601  0.5166733856869647  0.6039125521885402
  0.4632937946967804  0.5176827880010089  0.1035894581715791
 
  0.00000000E+00  0.00000000E+00  0.00000000E+00
  0.00000000E+00  0.00000000E+00  0.00000000E+00
  0.00000000E+00  0.00000000E+00  0.00000000E+00
  0.00000000E+00  0.00000000E+00  0.00000000E+00
  0.00000000E+00  0.00000000E+00  0.00000000E+00
  0.00000000E+00  0.00000000E+00  0.00000000E+00
  0.00000000E+00  0.00000000E+00  0.00000000E+00
  0.00000000E+00  0.00000000E+00  0.00000000E+00
  0.00000000E+00  0.00000000E+00  0.00000000E+00
  0.00000000E+00  0.00000000E+00  0.00000000E+00
  0.00000000E+00  0.00000000E+00  0.00000000E+00
  0.00000000E+00  0.00000000E+00  0.00000000E+00
  0.00000000E+00  0.00000000E+00  0.00000000E+00
  0.00000000E+00  0.00000000E+00  0.00000000E+00
  0.00000000E+00  0.00000000E+00  0.00000000E+00
  0.00000000E+00  0.00000000E+00  0.00000000E+00
  0.00000000E+00  0.00000000E+00  0.00000000E+00
  0.00000000E+00  0.00000000E+00  0.00000000E+00
  0.00000000E+00  0.00000000E+00  0.00000000E+00
  0.00000000E+00  0.00000000E+00  0.00000000E+00
