Poscar file generated with pyiron       
   1.00000000000000     
     8.4671202089630153    0.2513394597344256    0.0292425707425335
    -0.3871187668026530   13.9278611183768817   -0.0242521355465964
     0.0621054086471880    0.0140741598468802    7.9988078543425036
   Cs   I    Pb
     4    12     4
Direct
  0.4965218406226585  0.1660383519295757  0.2527640336403378
  0.9865710014596372  0.3483512940111869  0.7658789148980956
  0.9837745286822266  0.6658376743084030  0.2671610313441168
  0.5002197789452562  0.8492077084082923  0.7528206289006694
  0.2539111441043451  0.0983943098186294  0.6576796213407446
  0.2291515021122216  0.4167133846630800  0.3601170116921334
  0.7373829563880463  0.1021697371512920  0.6647810139799065
  0.7452167244077164  0.4123371387066980  0.3571685934954310
  0.4805183008614048  0.3262660282210422  0.8630283523099267
 -0.0009893905520627  0.1887281124940727  0.1571427802340542
  0.7504331272128770  0.5978861003334156  0.8541067845529935
  0.7350589564134001  0.9153626291007542  0.1643763232468010
  0.2338758397723969  0.6040256788800161  0.8633945503517658
  0.2510352309521531  0.9125427997674257  0.1587084695752366
 -0.0064796977745932  0.8257331540965989  0.6571584852315412
  0.4904493180648264  0.6895692617718385  0.3628770235478103
 -0.0051761428030406  0.0077764667815746  0.4208543424956340
 -0.0046511456397154  0.0065017874940982  0.9209911041753572
  0.4872371280075262  0.5073174678541679  0.5995137734630445
  0.4890704848056566  0.5084855776167179  0.0995033398650367
 
  0.00000000E+00  0.00000000E+00  0.00000000E+00
  0.00000000E+00  0.00000000E+00  0.00000000E+00
  0.00000000E+00  0.00000000E+00  0.00000000E+00
  0.00000000E+00  0.00000000E+00  0.00000000E+00
  0.00000000E+00  0.00000000E+00  0.00000000E+00
  0.00000000E+00  0.00000000E+00  0.00000000E+00
  0.00000000E+00  0.00000000E+00  0.00000000E+00
  0.00000000E+00  0.00000000E+00  0.00000000E+00
  0.00000000E+00  0.00000000E+00  0.00000000E+00
  0.00000000E+00  0.00000000E+00  0.00000000E+00
  0.00000000E+00  0.00000000E+00  0.00000000E+00
  0.00000000E+00  0.00000000E+00  0.00000000E+00
  0.00000000E+00  0.00000000E+00  0.00000000E+00
  0.00000000E+00  0.00000000E+00  0.00000000E+00
  0.00000000E+00  0.00000000E+00  0.00000000E+00
  0.00000000E+00  0.00000000E+00  0.00000000E+00
  0.00000000E+00  0.00000000E+00  0.00000000E+00
  0.00000000E+00  0.00000000E+00  0.00000000E+00
  0.00000000E+00  0.00000000E+00  0.00000000E+00
  0.00000000E+00  0.00000000E+00  0.00000000E+00
