Poscar file generated with pyiron       
   1.00000000000000     
     8.2808332950278878    0.0656675316809637    1.3365197846599388
    -0.0914212149689152   14.5995944231764838   -0.1383884527177767
     0.0983622366967970   -0.0460035059572906    7.8487352774308521
   Cs   I    Pb
     4    12     4
Direct
  0.4760668433837211  0.1927987850136277  0.2203778723387420
 -0.0246992365137989  0.3497518367882225  0.7617950174584782
  0.9689661794264413  0.6926025477411997  0.2621982365057093
  0.4799474159066495  0.8493193218580092  0.7171671984862605
  0.2354689658984939  0.1186548082874853  0.6684531080313019
  0.2127543547224688  0.4234844591736474  0.3108762848653182
  0.6977529038597134  0.0936689997888109  0.7700018709287856
  0.7505858157423148  0.4479225549257690  0.2106528909950394
  0.4920031053819071  0.3458993684235372  0.7659997840742180
  0.9585784631898477  0.1959418415873641  0.2132916720833049
  0.7294081307623195  0.6162496699894483  0.7192791898237567
  0.7195242075988318  0.9255322657130354  0.2596282338939112
  0.1910373773648013  0.5983300063684046  0.8193438935254066
  0.2575114640658637  0.9434867282529995  0.1608436467068105
  0.0051635486444224  0.8453760086487740  0.6945308925279461
  0.4429964382239606  0.6964592995957067  0.2852928655574309
  0.9787612250404871  0.0217951147366472  0.4642088228650326
  0.9793450982643283  0.0191029048685932  0.9641777937570044
  0.4694558515962060  0.5201030328729647  0.5156450886919316
  0.4698901580460462  0.5227182554242183  0.0154195476653545
 
  0.00000000E+00  0.00000000E+00  0.00000000E+00
  0.00000000E+00  0.00000000E+00  0.00000000E+00
  0.00000000E+00  0.00000000E+00  0.00000000E+00
  0.00000000E+00  0.00000000E+00  0.00000000E+00
  0.00000000E+00  0.00000000E+00  0.00000000E+00
  0.00000000E+00  0.00000000E+00  0.00000000E+00
  0.00000000E+00  0.00000000E+00  0.00000000E+00
  0.00000000E+00  0.00000000E+00  0.00000000E+00
  0.00000000E+00  0.00000000E+00  0.00000000E+00
  0.00000000E+00  0.00000000E+00  0.00000000E+00
  0.00000000E+00  0.00000000E+00  0.00000000E+00
  0.00000000E+00  0.00000000E+00  0.00000000E+00
  0.00000000E+00  0.00000000E+00  0.00000000E+00
  0.00000000E+00  0.00000000E+00  0.00000000E+00
  0.00000000E+00  0.00000000E+00  0.00000000E+00
  0.00000000E+00  0.00000000E+00  0.00000000E+00
  0.00000000E+00  0.00000000E+00  0.00000000E+00
  0.00000000E+00  0.00000000E+00  0.00000000E+00
  0.00000000E+00  0.00000000E+00  0.00000000E+00
  0.00000000E+00  0.00000000E+00  0.00000000E+00
