Poscar file generated with pyiron       
   1.00000000000000     
     8.4814947979327151    0.0384747672428256   -0.0540777234151254
    -0.1314694279301717   13.9877844502874105   -0.0320261294479885
     0.0579876889294134    0.0177508637323629    7.9638015996916725
   Cs   I    Pb
     4    12     4
Direct
  0.4823640067490714  0.1561356257779564  0.2431106030263050
  0.9712462550299844  0.3359779096466210  0.7537545186664097
  0.9815242290487928  0.6572328731486673  0.2545730839197830
  0.4716356498900502  0.8377170754789721  0.7431796438509792
  0.2281339057265762  0.0976686851980201  0.6542446705576251
  0.2280493694115933  0.3939698798918866  0.3471558290378474
  0.7115143739770633  0.0812998018913673  0.6528742685708574
  0.7439630392781974  0.4147942515910706  0.3455920479546656
  0.4977018123681137  0.3162367924368195  0.8502681686043806
  0.9591218923453128  0.1779633001538884  0.1500601976146567
  0.7249506757446260  0.5999600152706198  0.8470069525261943
  0.7255401905457486  0.8961896749099194  0.1544439271928520
  0.2087636071007221  0.5787872379277130  0.8461691464290440
  0.2422990991723353  0.9128558073149943  0.1524871468084558
  0.9946680768087425  0.8159636723388191  0.6498620184627345
  0.4552906313669804  0.6778299466941138  0.3506120839965118
 -0.0222702792623726  0.9973067632081846  0.4123247544494116
  0.9760063684727605 -0.0033989529893008  0.9123655303743637
  0.4762363686842813  0.4965797796017792  0.5876483307180457
  0.4766853559266670  0.4974074108513580  0.0876753559020689
 
  0.00000000E+00  0.00000000E+00  0.00000000E+00
  0.00000000E+00  0.00000000E+00  0.00000000E+00
  0.00000000E+00  0.00000000E+00  0.00000000E+00
  0.00000000E+00  0.00000000E+00  0.00000000E+00
  0.00000000E+00  0.00000000E+00  0.00000000E+00
  0.00000000E+00  0.00000000E+00  0.00000000E+00
  0.00000000E+00  0.00000000E+00  0.00000000E+00
  0.00000000E+00  0.00000000E+00  0.00000000E+00
  0.00000000E+00  0.00000000E+00  0.00000000E+00
  0.00000000E+00  0.00000000E+00  0.00000000E+00
  0.00000000E+00  0.00000000E+00  0.00000000E+00
  0.00000000E+00  0.00000000E+00  0.00000000E+00
  0.00000000E+00  0.00000000E+00  0.00000000E+00
  0.00000000E+00  0.00000000E+00  0.00000000E+00
  0.00000000E+00  0.00000000E+00  0.00000000E+00
  0.00000000E+00  0.00000000E+00  0.00000000E+00
  0.00000000E+00  0.00000000E+00  0.00000000E+00
  0.00000000E+00  0.00000000E+00  0.00000000E+00
  0.00000000E+00  0.00000000E+00  0.00000000E+00
  0.00000000E+00  0.00000000E+00  0.00000000E+00
