Poscar file generated with pyiron       
   1.00000000000000     
     8.2218082772384466    0.1252164204730353    1.4861153298350169
     0.0182400575830375   14.6873170614204032   -1.3689356215240045
    -0.1061651687425186    0.0729831515490796    7.8406366914649563
   Cs   I    Pb
     4    12     4
Direct
  0.4677349311280332  0.1960752760833403  0.3016685502004939
  0.9728750026489218  0.3334127643865831  0.7675648690244797
 -0.0195214468059633  0.6730486935158480  0.3105517200716222
  0.4613294383000484  0.8573238399823724  0.7580518333932739
  0.2337303632182395  0.0912825000547411  0.7335084848493059
  0.2078364049930584  0.4391859345767568  0.3368110390445079
  0.6978193795010300  0.1115754341541338  0.8395542657928028
  0.7436201789907433  0.4177245381462362  0.2306555829234593
  0.4520499895886267  0.3423649697500082  0.7733013310810931
  0.9887696487922050  0.1876730216649861  0.2959457792767427
  0.7759238900356552  0.5771880813876961  0.7569786040580627
  0.6668958541051436  0.9521321861439820  0.3125168057365774
  0.2388528720957663  0.6254397265512621  0.8534899078788409
  0.2045607880447762  0.9052747929589730  0.2167632468829979
  0.9372424504298966  0.8392278979072286  0.7483119066522055
  0.5047878940225391  0.6908085419768829  0.3209014306200478
  0.9560598348502284  0.0131795567402534  0.5231157626643183
  0.9567441518850893  0.0129094434022085  0.0258364197828578
  0.4858747271095850  0.5167375703768318  0.5469503406471106
  0.4855600179722573  0.5171502683731680  0.0444035636179088
 
  0.00000000E+00  0.00000000E+00  0.00000000E+00
  0.00000000E+00  0.00000000E+00  0.00000000E+00
  0.00000000E+00  0.00000000E+00  0.00000000E+00
  0.00000000E+00  0.00000000E+00  0.00000000E+00
  0.00000000E+00  0.00000000E+00  0.00000000E+00
  0.00000000E+00  0.00000000E+00  0.00000000E+00
  0.00000000E+00  0.00000000E+00  0.00000000E+00
  0.00000000E+00  0.00000000E+00  0.00000000E+00
  0.00000000E+00  0.00000000E+00  0.00000000E+00
  0.00000000E+00  0.00000000E+00  0.00000000E+00
  0.00000000E+00  0.00000000E+00  0.00000000E+00
  0.00000000E+00  0.00000000E+00  0.00000000E+00
  0.00000000E+00  0.00000000E+00  0.00000000E+00
  0.00000000E+00  0.00000000E+00  0.00000000E+00
  0.00000000E+00  0.00000000E+00  0.00000000E+00
  0.00000000E+00  0.00000000E+00  0.00000000E+00
  0.00000000E+00  0.00000000E+00  0.00000000E+00
  0.00000000E+00  0.00000000E+00  0.00000000E+00
  0.00000000E+00  0.00000000E+00  0.00000000E+00
  0.00000000E+00  0.00000000E+00  0.00000000E+00
