Poscar file generated with pyiron       
   1.00000000000000     
     8.4615802433936533    0.1796454379406531    0.2924987523609944
    -0.3277478513546346   13.9690516211823610   -0.0845852346267918
    -0.1934762954455684    0.0469734644801649    7.9670350903043730
   Cs   I    Pb
     4    12     4
Direct
  0.4894369891418675  0.1751780357072737  0.2604933265269247
  0.9716532850169471  0.3561863396884098  0.7733797178400144
  0.9784415065522996  0.6739775605422484  0.2762481674310049
  0.4851325056206175  0.8568483086514623  0.7600310383381036
  0.2380580325031863  0.1136369514022237  0.6683954004967736
  0.2235141024149192  0.4179305653260585  0.3664059208041446
  0.7217674565538128  0.1042151235654863  0.6731326649356449
  0.7392631070391862  0.4274862669517378  0.3609699880465165
  0.4868189025669706  0.3345716368562565  0.8684087712769586
  0.9727815600753854  0.1972048867375344  0.1664211345551758
  0.7313435517063529  0.6132610212541137  0.8610390658262553
  0.7314421083628843  0.9173465936264729  0.1740392414038304
  0.2136610495120715  0.6030277757085597  0.8667444747204130
  0.2483979096457002  0.9295910809494357  0.1673681258999179
 -0.0039705351078355  0.8348631514539456  0.6664082615389421
  0.4648400105694594  0.6969439238765197  0.3683889328997925
 -0.0143940378415207  0.0165212763766869  0.4298338601904901
  0.9845453062030782  0.0154568116938678  0.9300163331402251
  0.4759779373104173  0.5152422401696570  0.6044763346244970
  0.4766521194350864  0.5163356559140615  0.1048505544085109
 
  0.00000000E+00  0.00000000E+00  0.00000000E+00
  0.00000000E+00  0.00000000E+00  0.00000000E+00
  0.00000000E+00  0.00000000E+00  0.00000000E+00
  0.00000000E+00  0.00000000E+00  0.00000000E+00
  0.00000000E+00  0.00000000E+00  0.00000000E+00
  0.00000000E+00  0.00000000E+00  0.00000000E+00
  0.00000000E+00  0.00000000E+00  0.00000000E+00
  0.00000000E+00  0.00000000E+00  0.00000000E+00
  0.00000000E+00  0.00000000E+00  0.00000000E+00
  0.00000000E+00  0.00000000E+00  0.00000000E+00
  0.00000000E+00  0.00000000E+00  0.00000000E+00
  0.00000000E+00  0.00000000E+00  0.00000000E+00
  0.00000000E+00  0.00000000E+00  0.00000000E+00
  0.00000000E+00  0.00000000E+00  0.00000000E+00
  0.00000000E+00  0.00000000E+00  0.00000000E+00
  0.00000000E+00  0.00000000E+00  0.00000000E+00
  0.00000000E+00  0.00000000E+00  0.00000000E+00
  0.00000000E+00  0.00000000E+00  0.00000000E+00
  0.00000000E+00  0.00000000E+00  0.00000000E+00
  0.00000000E+00  0.00000000E+00  0.00000000E+00
