Poscar file generated with pyiron       
   1.00000000000000     
     8.2939410309688686   -0.1929495771850775    1.2096672656944361
     0.2513294624001501   14.5227756494853839    0.4175729632738761
     0.0391285225608665   -0.1395848581796950    7.8587413289694279
   Cs   I    Pb
     4    12     4
Direct
  0.4811048830680513  0.1859179224479993  0.2390171432078401
  0.9699194996990677  0.3684731018149752  0.8040781896902363
  0.9656568153174601  0.7031309770015890  0.2938399480044288
  0.4822287008667673  0.8533040998392549  0.7474716156489354
  0.2220819753043132  0.1349775363117370  0.6811402378547206
  0.2311592189095125  0.4183610036032089  0.3634508067950616
  0.6917805481527695  0.0982361440220203  0.7636525586605816
  0.7608356521965121  0.4579525163092259  0.2802639610444667
  0.4909073709946938  0.3509896503263095  0.8357935178345333
  0.9611897802315611  0.2040816495876177  0.2084362922878177
  0.7350260685139466  0.6225255499931923  0.7767770321968305
  0.7144637010691756  0.9336256521977927  0.2681572973776183
  0.2019005251894485  0.6068744697490840  0.8680846989350040
  0.2482765537109582  0.9470849184813134  0.1763084114337020
  0.0092834414943485  0.8533230653018944  0.7082298697794668
  0.4390954233173826  0.7015352313163006  0.3365464967561513
  0.9757540057267402  0.0307326669645376  0.4728357815526845
  0.9749271688499888  0.0272825140059861  0.9705585877543651
  0.4756230145292221  0.5242418136336532  0.5715595973862642
  0.4759485753545211  0.5277397975336576  0.0739415942626603
 
  0.00000000E+00  0.00000000E+00  0.00000000E+00
  0.00000000E+00  0.00000000E+00  0.00000000E+00
  0.00000000E+00  0.00000000E+00  0.00000000E+00
  0.00000000E+00  0.00000000E+00  0.00000000E+00
  0.00000000E+00  0.00000000E+00  0.00000000E+00
  0.00000000E+00  0.00000000E+00  0.00000000E+00
  0.00000000E+00  0.00000000E+00  0.00000000E+00
  0.00000000E+00  0.00000000E+00  0.00000000E+00
  0.00000000E+00  0.00000000E+00  0.00000000E+00
  0.00000000E+00  0.00000000E+00  0.00000000E+00
  0.00000000E+00  0.00000000E+00  0.00000000E+00
  0.00000000E+00  0.00000000E+00  0.00000000E+00
  0.00000000E+00  0.00000000E+00  0.00000000E+00
  0.00000000E+00  0.00000000E+00  0.00000000E+00
  0.00000000E+00  0.00000000E+00  0.00000000E+00
  0.00000000E+00  0.00000000E+00  0.00000000E+00
  0.00000000E+00  0.00000000E+00  0.00000000E+00
  0.00000000E+00  0.00000000E+00  0.00000000E+00
  0.00000000E+00  0.00000000E+00  0.00000000E+00
  0.00000000E+00  0.00000000E+00  0.00000000E+00
