Poscar file generated with pyiron       
   1.00000000000000     
     8.4557278535647047    0.1100634186951361    0.4244384837159539
    -0.1691987462621382   13.9332847349257456    0.1782066530467663
    -0.3195972310490846   -0.1050297701761397    7.9861195287452951
   Cs   I    Pb
     4    12     4
Direct
  0.4751314129817588  0.1665875546278571  0.2776773596109433
  0.9663944590098708  0.3497392747590866  0.7923219696851626
  0.9636569773746589  0.6667039476485549  0.2920954991635618
  0.4785638202158143  0.8495371186055594  0.7775835929583965
  0.2350901293755568  0.0979622550638517  0.6841539665124872
  0.2072290681011622  0.4177572454116337  0.3858674821503380
  0.7184002133213211  0.1038627192442434  0.6891898917830732
  0.7239492858684141  0.4125953839153542  0.3803122539750883
  0.4620611279058789  0.3265640450228484  0.8873152030733253
 -0.0194781941207578  0.1895576168858769  0.1824930713441636
  0.7276143940620940  0.5992357132590513  0.8804524772512191
  0.7138307521250340  0.9173118785523260  0.1895982011877788
  0.2113450941655620  0.6032799449676270  0.8856710652521128
  0.2300370392973471  0.9123692299911396  0.1838212496120199
  0.9694225037915843  0.8265490366975164  0.6825917293799693
  0.4720275131685477  0.6895615573578239  0.3872779326721583
 -0.0251517715244208  0.0085080386474264  0.4462429579962859
  0.9748807280194841  0.0075743665289104  0.9463100289153664
  0.4671987507063884  0.5076174897668195  0.6235373569046724
  0.4668610562496562  0.5085466843183637  0.1234917249457309
 
  0.00000000E+00  0.00000000E+00  0.00000000E+00
  0.00000000E+00  0.00000000E+00  0.00000000E+00
  0.00000000E+00  0.00000000E+00  0.00000000E+00
  0.00000000E+00  0.00000000E+00  0.00000000E+00
  0.00000000E+00  0.00000000E+00  0.00000000E+00
  0.00000000E+00  0.00000000E+00  0.00000000E+00
  0.00000000E+00  0.00000000E+00  0.00000000E+00
  0.00000000E+00  0.00000000E+00  0.00000000E+00
  0.00000000E+00  0.00000000E+00  0.00000000E+00
  0.00000000E+00  0.00000000E+00  0.00000000E+00
  0.00000000E+00  0.00000000E+00  0.00000000E+00
  0.00000000E+00  0.00000000E+00  0.00000000E+00
  0.00000000E+00  0.00000000E+00  0.00000000E+00
  0.00000000E+00  0.00000000E+00  0.00000000E+00
  0.00000000E+00  0.00000000E+00  0.00000000E+00
  0.00000000E+00  0.00000000E+00  0.00000000E+00
  0.00000000E+00  0.00000000E+00  0.00000000E+00
  0.00000000E+00  0.00000000E+00  0.00000000E+00
  0.00000000E+00  0.00000000E+00  0.00000000E+00
  0.00000000E+00  0.00000000E+00  0.00000000E+00
