Poscar file generated with pyiron       
   1.00000000000000     
     8.3053866336085616    0.1952046198649383    1.0596249287981621
    -0.2876787494676979   14.6027020146958240   -0.6019150814618894
     0.2472629495512132    0.2157603320403920    7.8357373090373645
   Cs   I    Pb
     4    12     4
Direct
  0.4788232649477557  0.1979044673601013  0.2191104640752558
  0.9697235047547628  0.3411826999288203  0.7579804623108065
  0.9776838428036401  0.6779320841348873  0.2709850300300209
  0.4715348477550108  0.8616200715766109  0.7037795525928294
  0.2440056493896641  0.0990747894639674  0.6484840550452297
  0.2029070600118614  0.4406597381324623  0.3259394186516342
  0.7089104421018059  0.1138869683818621  0.7466497981043354
  0.7382820772506197  0.4248493814104546  0.2281536517608314
  0.4408608665204299  0.3461852373529891  0.7906731345543404
  0.0068635239435953  0.1931862622234302  0.1845244564099746
  0.7677045094407873  0.5847832241356155  0.7329547725464479
  0.6804522434983454  0.9540029831835241  0.2421590523313264
  0.2338353189143928  0.6290204894859720  0.8211970556984309
  0.2146718060752478  0.9109904684688644  0.1537296806109844
  0.9498149899519265  0.8433417185393348  0.6839303160807158
  0.4995830667531052  0.6956016870022305  0.2902812449887299
  0.9682334743982121  0.0198444308737438  0.4452640355036970
  0.9688438414291947  0.0162423466028697  0.9476674075669765
  0.4796680290791431  0.5194633017813505  0.5295304960440117
  0.4787131828511217  0.5228613064381609  0.0271433559636693
 
  0.00000000E+00  0.00000000E+00  0.00000000E+00
  0.00000000E+00  0.00000000E+00  0.00000000E+00
  0.00000000E+00  0.00000000E+00  0.00000000E+00
  0.00000000E+00  0.00000000E+00  0.00000000E+00
  0.00000000E+00  0.00000000E+00  0.00000000E+00
  0.00000000E+00  0.00000000E+00  0.00000000E+00
  0.00000000E+00  0.00000000E+00  0.00000000E+00
  0.00000000E+00  0.00000000E+00  0.00000000E+00
  0.00000000E+00  0.00000000E+00  0.00000000E+00
  0.00000000E+00  0.00000000E+00  0.00000000E+00
  0.00000000E+00  0.00000000E+00  0.00000000E+00
  0.00000000E+00  0.00000000E+00  0.00000000E+00
  0.00000000E+00  0.00000000E+00  0.00000000E+00
  0.00000000E+00  0.00000000E+00  0.00000000E+00
  0.00000000E+00  0.00000000E+00  0.00000000E+00
  0.00000000E+00  0.00000000E+00  0.00000000E+00
  0.00000000E+00  0.00000000E+00  0.00000000E+00
  0.00000000E+00  0.00000000E+00  0.00000000E+00
  0.00000000E+00  0.00000000E+00  0.00000000E+00
  0.00000000E+00  0.00000000E+00  0.00000000E+00
