Poscar file generated with pyiron       
   1.00000000000000     
     8.3148099674808584   -0.2077258086129931    1.1405101638198742
     0.2988155835023940   14.3585819822397980    0.3102296003332753
     0.0008171005225352   -0.1567199825455359    7.9099487646671340
   Cs   I    Pb
     4    12     4
Direct
  0.4940476883807930  0.1948272761556356  0.2394802241161154
  0.9551341176600896  0.3700152649725363  0.7999782499346162
  0.9506458127830288  0.6978723501565236  0.2913486018961413
  0.4886127190627638  0.8691563388078725  0.7324423971983823
  0.2456824635060314  0.1228199581824766  0.6667321759439448
  0.2083716250427040  0.4309207498151389  0.3703944547974246
  0.7163931737176787  0.1177459527639172  0.7422828058156780
  0.7361561096982645  0.4479427230079736  0.2892625740258357
  0.4613817264855928  0.3532540901190190  0.8440568667298517
 -0.0101977792627947  0.2073582404637283  0.1893147476424671
  0.7239901594072209  0.6233285148882655  0.7928415850718721
  0.7153534177287224  0.9422111162667695  0.2462476851496799
  0.1941204842433475  0.6157905988887595  0.8686011308936915
  0.2466769927736133  0.9400271459919346  0.1637003740400994
  0.9962234552872896  0.8533311093506791  0.6894727683323418
  0.4413805058742041  0.7070114987417907  0.3454477070964191
  0.9856465218837761  0.0325606648965385  0.4556543600211576
 -0.0163187511728433  0.0285346898602559  0.9553214300172298
  0.4624962281986214  0.5283037741150955  0.5787918663038615
  0.4601397955749723  0.5319858177939025  0.0797092216365166
 
  0.00000000E+00  0.00000000E+00  0.00000000E+00
  0.00000000E+00  0.00000000E+00  0.00000000E+00
  0.00000000E+00  0.00000000E+00  0.00000000E+00
  0.00000000E+00  0.00000000E+00  0.00000000E+00
  0.00000000E+00  0.00000000E+00  0.00000000E+00
  0.00000000E+00  0.00000000E+00  0.00000000E+00
  0.00000000E+00  0.00000000E+00  0.00000000E+00
  0.00000000E+00  0.00000000E+00  0.00000000E+00
  0.00000000E+00  0.00000000E+00  0.00000000E+00
  0.00000000E+00  0.00000000E+00  0.00000000E+00
  0.00000000E+00  0.00000000E+00  0.00000000E+00
  0.00000000E+00  0.00000000E+00  0.00000000E+00
  0.00000000E+00  0.00000000E+00  0.00000000E+00
  0.00000000E+00  0.00000000E+00  0.00000000E+00
  0.00000000E+00  0.00000000E+00  0.00000000E+00
  0.00000000E+00  0.00000000E+00  0.00000000E+00
  0.00000000E+00  0.00000000E+00  0.00000000E+00
  0.00000000E+00  0.00000000E+00  0.00000000E+00
  0.00000000E+00  0.00000000E+00  0.00000000E+00
  0.00000000E+00  0.00000000E+00  0.00000000E+00
