Poscar file generated with pyiron       
   1.00000000000000     
     8.4642070773121976    0.2711555130960105    0.1572776765257041
    -0.4484910054694183   13.9178207474103974   -0.0175940105523954
    -0.0367483296482682    0.0100844966433077    8.0017095345344895
   Cs   I    Pb
     4    12     4
Direct
  0.5131099687683457  0.1670112856812451  0.2553700786493418
  0.9903868640006489  0.3513599173936248  0.7716092799000348
  0.9925862396771428  0.6662942404202706  0.2725702347430434
  0.5103165814993096  0.8523469348922466  0.7535329508417090
  0.2634878736524152  0.1049174852478234  0.6592488057204555
  0.2400070467474246  0.4142147160157960  0.3669375097363799
  0.7478522372768420  0.1005621352651924  0.6665225350254483
  0.7554650062781857  0.4174114788752047  0.3601935313779441
  0.5015485891603626  0.3276777633223142  0.8671722714334257
  0.0035280158907705  0.1907870546308642  0.1595892428737924
  0.7511166285825061  0.6056830859213830  0.8594473927369882
  0.7521466076325442  0.9131345869676484  0.1669832749473903
  0.2347156237499861  0.5988244518930945  0.8677281451146782
  0.2686980180470378  0.9194767156262945  0.1588603019610682
  0.0149204704130945  0.8275937722543021  0.6594195030564940
  0.4891890256936394  0.6908430002734498  0.3672165058441072
  0.0090070469885612  0.0094955138504459  0.4223934766402465
  0.0086432722863474  0.0089169887374761  0.9223875640455910
  0.4944793881995252  0.5088509259820778  0.6039638925850440
  0.4952342344576752  0.5097543424229128  0.1038187730035323
 
  0.00000000E+00  0.00000000E+00  0.00000000E+00
  0.00000000E+00  0.00000000E+00  0.00000000E+00
  0.00000000E+00  0.00000000E+00  0.00000000E+00
  0.00000000E+00  0.00000000E+00  0.00000000E+00
  0.00000000E+00  0.00000000E+00  0.00000000E+00
  0.00000000E+00  0.00000000E+00  0.00000000E+00
  0.00000000E+00  0.00000000E+00  0.00000000E+00
  0.00000000E+00  0.00000000E+00  0.00000000E+00
  0.00000000E+00  0.00000000E+00  0.00000000E+00
  0.00000000E+00  0.00000000E+00  0.00000000E+00
  0.00000000E+00  0.00000000E+00  0.00000000E+00
  0.00000000E+00  0.00000000E+00  0.00000000E+00
  0.00000000E+00  0.00000000E+00  0.00000000E+00
  0.00000000E+00  0.00000000E+00  0.00000000E+00
  0.00000000E+00  0.00000000E+00  0.00000000E+00
  0.00000000E+00  0.00000000E+00  0.00000000E+00
  0.00000000E+00  0.00000000E+00  0.00000000E+00
  0.00000000E+00  0.00000000E+00  0.00000000E+00
  0.00000000E+00  0.00000000E+00  0.00000000E+00
  0.00000000E+00  0.00000000E+00  0.00000000E+00
