Poscar file generated with pyiron       
   1.00000000000000     
     8.4512994176444529   -0.1657480307783064    0.4963174417425453
     0.2548810739827253   13.8900919473541578    0.2402216226249413
    -0.3957987218640611   -0.1278521992795585    8.0030162575788548
   Cs   I    Pb
     4    12     4
Direct
  0.4804747258866379  0.1680254598234534  0.2531639717479566
  0.9688633428714726  0.3526269254568842  0.7666721571070501
  0.9664792972281103  0.6684666028592163  0.2671449512447353
  0.4814883013671018  0.8521534577120391  0.7541252227719538
  0.2377020394147636  0.1025206942194141  0.6569088581853737
  0.2107776839314970  0.4187364908858798  0.3627318294577141
  0.7215200335512603  0.1051238960051598  0.6624473499211396
  0.7265543239080601  0.4157589910795972  0.3585738728673921
  0.4674149016915704  0.3286490722642386  0.8655756854041308
  0.9804470359760790  0.1925248669458171  0.1547712350017470
  0.7289276675014917  0.6029243992829804  0.8578782527663493
  0.7197847376359758  0.9176468136101046  0.1618688866133844
  0.2129757607005332  0.6047295106949001  0.8636166138070339
  0.2357196827590702  0.9165124925063327  0.1572933304438229
  0.9761829112512337  0.8287159661545400  0.6550405750988400
  0.4724984990913875  0.6923992110298460  0.3654261203753636
 -0.0210257843806777  0.0112522981171289  0.4187788272070385
  0.9792412241165166  0.0099027271172968  0.9186942523907882
  0.4691764266101537  0.5098054247040238  0.6015086497184311
  0.4693916542277730  0.5112241224235949  0.1014376746707877
 
  0.00000000E+00  0.00000000E+00  0.00000000E+00
  0.00000000E+00  0.00000000E+00  0.00000000E+00
  0.00000000E+00  0.00000000E+00  0.00000000E+00
  0.00000000E+00  0.00000000E+00  0.00000000E+00
  0.00000000E+00  0.00000000E+00  0.00000000E+00
  0.00000000E+00  0.00000000E+00  0.00000000E+00
  0.00000000E+00  0.00000000E+00  0.00000000E+00
  0.00000000E+00  0.00000000E+00  0.00000000E+00
  0.00000000E+00  0.00000000E+00  0.00000000E+00
  0.00000000E+00  0.00000000E+00  0.00000000E+00
  0.00000000E+00  0.00000000E+00  0.00000000E+00
  0.00000000E+00  0.00000000E+00  0.00000000E+00
  0.00000000E+00  0.00000000E+00  0.00000000E+00
  0.00000000E+00  0.00000000E+00  0.00000000E+00
  0.00000000E+00  0.00000000E+00  0.00000000E+00
  0.00000000E+00  0.00000000E+00  0.00000000E+00
  0.00000000E+00  0.00000000E+00  0.00000000E+00
  0.00000000E+00  0.00000000E+00  0.00000000E+00
  0.00000000E+00  0.00000000E+00  0.00000000E+00
  0.00000000E+00  0.00000000E+00  0.00000000E+00
