Poscar file generated with pyiron       
   1.00000000000000     
     8.2406221866700147    0.1237069787076018    1.4398389262371778
     0.0557952645902884   14.6490504518356719   -1.2350653290913955
    -0.0510814948895448    0.0355458755204089    7.8357052298738461
   Cs   I    Pb
     4    12     4
Direct
  0.4789826971286147  0.1868932772416569  0.2998922518964047
  0.9802730931160162  0.3269307028787342  0.7661684003910759
 -0.0168572056768724  0.6673336887092046  0.3072502429179674
  0.4755324370861814  0.8461858483606317  0.7590027754025269
  0.2468402873084150  0.0818507746607821  0.7306074120557170
  0.2124376568819529  0.4316707293447131  0.3352189083236212
  0.7107977824863849  0.1037168839889944  0.8364921590268380
  0.7485864633809741  0.4097815272678150  0.2295330040603760
  0.4590077337117317  0.3336638735914011  0.7735477303200978
  0.0002235160534597  0.1798858370513333  0.2927752734757886
  0.7768089844876770  0.5717087225426173  0.7545600168873535
  0.6823196815776549  0.9418514756527940  0.3116025417517821
  0.2410572447591548  0.6157734727716534  0.8520010696583112
  0.2180749834560297  0.8976079370287117  0.2142785955401022
  0.9518513657503751  0.8307608710884338  0.7470389554893445
  0.5072718845807019  0.6827425034591954  0.3192252107659279
  0.9693833535433420  0.0052296876887673  0.5212706250835403
 -0.0300615158187927  0.0046270643367701  0.0234947584356412
  0.4899128944083019  0.5082563593018777  0.5449849799371137
  0.4892684004646349  0.5089061923785848  0.0428574948636414
 
  0.00000000E+00  0.00000000E+00  0.00000000E+00
  0.00000000E+00  0.00000000E+00  0.00000000E+00
  0.00000000E+00  0.00000000E+00  0.00000000E+00
  0.00000000E+00  0.00000000E+00  0.00000000E+00
  0.00000000E+00  0.00000000E+00  0.00000000E+00
  0.00000000E+00  0.00000000E+00  0.00000000E+00
  0.00000000E+00  0.00000000E+00  0.00000000E+00
  0.00000000E+00  0.00000000E+00  0.00000000E+00
  0.00000000E+00  0.00000000E+00  0.00000000E+00
  0.00000000E+00  0.00000000E+00  0.00000000E+00
  0.00000000E+00  0.00000000E+00  0.00000000E+00
  0.00000000E+00  0.00000000E+00  0.00000000E+00
  0.00000000E+00  0.00000000E+00  0.00000000E+00
  0.00000000E+00  0.00000000E+00  0.00000000E+00
  0.00000000E+00  0.00000000E+00  0.00000000E+00
  0.00000000E+00  0.00000000E+00  0.00000000E+00
  0.00000000E+00  0.00000000E+00  0.00000000E+00
  0.00000000E+00  0.00000000E+00  0.00000000E+00
  0.00000000E+00  0.00000000E+00  0.00000000E+00
  0.00000000E+00  0.00000000E+00  0.00000000E+00
