Poscar file generated with pyiron       
   1.00000000000000     
     8.3451223621769639   -0.0088288042646281    0.9783346620728676
    -0.0064217368252892   14.3684338207655458    0.2141815816200076
     0.1600510084065525   -0.1348534705990772    7.9073401712558331
   Cs   I    Pb
     4    12     4
Direct
  0.4960072908482798  0.1774206205762197  0.2439597208344896
 -0.0356228179221603  0.3494524056633229  0.8057600913516116
  0.9604250604537309  0.6763170855872742  0.3010702031113015
  0.4957371649823308  0.8500338979210657  0.7430292416370404
  0.2543644453534585  0.1003395387153731  0.6721176245504045
  0.2049724029633689  0.4231217166047705  0.3752194668544192
  0.7239937104863196  0.1029425005863851  0.7513370576748539
  0.7356671252669383  0.4235467923589070  0.2938455329809982
  0.4557411797610093  0.3356554614104974  0.8492900987296668
  0.0042662874919999  0.1892570051719883  0.1969822895102142
  0.7382297947815598  0.5986614192495672  0.7968823144506476
  0.7174907313131004  0.9279033654159518  0.2509988943655226
  0.2094184344116848  0.6063236689421410  0.8730348487830796
  0.2463097437399555  0.9167103123152460  0.1726039356779590
  0.9925281657770273  0.8353548050037578  0.6966092717993453
  0.4632931190128466  0.6895760886412932  0.3500736155581460
  0.9891101435288004  0.0141739962542808  0.4627135507946160
 -0.0110295478871347  0.0103036651455708  0.9626825383486504
  0.4690972201679252  0.5107358507088657  0.5838725201417783
  0.4677025418586538  0.5145833834099122  0.0839865832178746
 
  0.00000000E+00  0.00000000E+00  0.00000000E+00
  0.00000000E+00  0.00000000E+00  0.00000000E+00
  0.00000000E+00  0.00000000E+00  0.00000000E+00
  0.00000000E+00  0.00000000E+00  0.00000000E+00
  0.00000000E+00  0.00000000E+00  0.00000000E+00
  0.00000000E+00  0.00000000E+00  0.00000000E+00
  0.00000000E+00  0.00000000E+00  0.00000000E+00
  0.00000000E+00  0.00000000E+00  0.00000000E+00
  0.00000000E+00  0.00000000E+00  0.00000000E+00
  0.00000000E+00  0.00000000E+00  0.00000000E+00
  0.00000000E+00  0.00000000E+00  0.00000000E+00
  0.00000000E+00  0.00000000E+00  0.00000000E+00
  0.00000000E+00  0.00000000E+00  0.00000000E+00
  0.00000000E+00  0.00000000E+00  0.00000000E+00
  0.00000000E+00  0.00000000E+00  0.00000000E+00
  0.00000000E+00  0.00000000E+00  0.00000000E+00
  0.00000000E+00  0.00000000E+00  0.00000000E+00
  0.00000000E+00  0.00000000E+00  0.00000000E+00
  0.00000000E+00  0.00000000E+00  0.00000000E+00
  0.00000000E+00  0.00000000E+00  0.00000000E+00
