Poscar file generated with pyiron       
   1.00000000000000     
     8.4677742639991749    0.1173242229082975   -0.0784419532031506
    -0.2012507098954905   13.9215450416720152    0.0114302819441345
     0.1697377383844390   -0.0007358203931865    7.9947670770791248
   Cs   I    Pb
     4    12     4
Direct
  0.4864361374644699  0.1521361369567102  0.2497900360693405
  0.9704623621985041  0.3353907672776645  0.7640283189696396
 -0.0285717622175774  0.6523954338107486  0.2641661515026997
  0.4842427894765987  0.8351046476319528  0.7494979362054184
  0.2385410881911201  0.0883021945696477  0.6543367828288645
  0.2176903964884462  0.3995105622552122  0.3590681611081397
  0.7224093723988047  0.0858971896247993  0.6611660154631468
  0.7337781084945121  0.4018517892837347  0.3528937991007834
  0.4760123950332202  0.3121053050337433  0.8601982989964213
  0.9806660803999081  0.1754778159692323  0.1535825224174957
  0.7316980877172515  0.5882757335046777  0.8523202624909104
  0.7247078814961619  0.8995556088798262  0.1610728426940964
  0.2153564918668789  0.5852714442986516  0.8594470130905745
  0.2411350626324149  0.9022772577849515  0.1546881612067178
  0.9861062411747230  0.8122829555555473  0.6538504338445081
  0.4705952555586815  0.6754044569515949  0.3598268875660517
 -0.0173316875133249  0.9944526500532904  0.4173147126353108
  0.9825431366454639 -0.0066232233006308  0.9173153389890943
  0.4736874922429286  0.4932739337020869  0.5964127492627385
  0.4739582313528531  0.4942098745268779  0.0965086832581486
 
  0.00000000E+00  0.00000000E+00  0.00000000E+00
  0.00000000E+00  0.00000000E+00  0.00000000E+00
  0.00000000E+00  0.00000000E+00  0.00000000E+00
  0.00000000E+00  0.00000000E+00  0.00000000E+00
  0.00000000E+00  0.00000000E+00  0.00000000E+00
  0.00000000E+00  0.00000000E+00  0.00000000E+00
  0.00000000E+00  0.00000000E+00  0.00000000E+00
  0.00000000E+00  0.00000000E+00  0.00000000E+00
  0.00000000E+00  0.00000000E+00  0.00000000E+00
  0.00000000E+00  0.00000000E+00  0.00000000E+00
  0.00000000E+00  0.00000000E+00  0.00000000E+00
  0.00000000E+00  0.00000000E+00  0.00000000E+00
  0.00000000E+00  0.00000000E+00  0.00000000E+00
  0.00000000E+00  0.00000000E+00  0.00000000E+00
  0.00000000E+00  0.00000000E+00  0.00000000E+00
  0.00000000E+00  0.00000000E+00  0.00000000E+00
  0.00000000E+00  0.00000000E+00  0.00000000E+00
  0.00000000E+00  0.00000000E+00  0.00000000E+00
  0.00000000E+00  0.00000000E+00  0.00000000E+00
  0.00000000E+00  0.00000000E+00  0.00000000E+00
