Poscar file generated with pyiron       
   1.00000000000000     
     8.4633287996572140    0.1405780116785859    0.3691280705695892
    -0.2563034606920859   13.9665455771386746    0.0560294669216479
    -0.2678034902245064   -0.0400981113124265    7.9790037945856982
   Cs   I    Pb
     4    12     4
Direct
  0.4780033352336929  0.1631248089397179  0.2840975174978271
  0.9583966761652715  0.3446691077409180  0.7978470300899617
  0.9651019139752022  0.6619911048530535  0.2995523368239861
  0.4758283067684159  0.8458030232947440  0.7836264484088198
  0.2304034454825078  0.0992438657627342  0.6923335065090882
  0.2081534098758652  0.4078103459595753  0.3919900961474130
  0.7137568698465485  0.0947291680208274  0.6967962586003170
  0.7246587048108806  0.4142614805897536  0.3845475750815425
  0.4707581239819522  0.3228419615060384  0.8925740239795574
 -0.0337491977115812  0.1853200785619015  0.1904617271027016
  0.7183575753029614  0.6010144367255712  0.8869242367286324
  0.7197401063267663  0.9067679704208718  0.1974908872233062
  0.2007030233527954  0.5922450628484038  0.8899892513174372
  0.2369538077943833  0.9160729468766509  0.1912822811118482
  0.9800843528699387  0.8226815895647852  0.6901700979236847
  0.4550125389131900  0.6854916089691934  0.3929752041593310
 -0.0247325860106713  0.0045477197562202  0.4536233877627294
  0.9747317155442322  0.0034606556859074  0.9536881345693086
  0.4629853240728571  0.5037320718268841  0.6294104413381043
  0.4623452215479601  0.5046214595585776  0.1293093150295337
 
  0.00000000E+00  0.00000000E+00  0.00000000E+00
  0.00000000E+00  0.00000000E+00  0.00000000E+00
  0.00000000E+00  0.00000000E+00  0.00000000E+00
  0.00000000E+00  0.00000000E+00  0.00000000E+00
  0.00000000E+00  0.00000000E+00  0.00000000E+00
  0.00000000E+00  0.00000000E+00  0.00000000E+00
  0.00000000E+00  0.00000000E+00  0.00000000E+00
  0.00000000E+00  0.00000000E+00  0.00000000E+00
  0.00000000E+00  0.00000000E+00  0.00000000E+00
  0.00000000E+00  0.00000000E+00  0.00000000E+00
  0.00000000E+00  0.00000000E+00  0.00000000E+00
  0.00000000E+00  0.00000000E+00  0.00000000E+00
  0.00000000E+00  0.00000000E+00  0.00000000E+00
  0.00000000E+00  0.00000000E+00  0.00000000E+00
  0.00000000E+00  0.00000000E+00  0.00000000E+00
  0.00000000E+00  0.00000000E+00  0.00000000E+00
  0.00000000E+00  0.00000000E+00  0.00000000E+00
  0.00000000E+00  0.00000000E+00  0.00000000E+00
  0.00000000E+00  0.00000000E+00  0.00000000E+00
  0.00000000E+00  0.00000000E+00  0.00000000E+00
