Poscar file generated with pyiron       
   1.00000000000000     
     8.2599863067007622    0.0785284638074646    1.3726925746998679
    -0.1600904848437261   14.5924580475147305    0.1379666295565263
     0.0044800815648264    0.0137409430372133    7.8707273262535455
   Cs   I    Pb
     4    12     4
Direct
  0.4869848890517588  0.1890429020503001  0.1901553813332324
 -0.0122631257787021  0.3668976329861652  0.7575082640223487
  0.9805749126319002  0.7053886082228285  0.2447976192816823
  0.4923117264276997  0.8509170932743686  0.7021692939404038
  0.2339757124432478  0.1341429819017732  0.6384417233590696
  0.2416392395664255  0.4210261953738488  0.3097384349411797
  0.6989187818976630  0.0960519384154051  0.7305687528285474
  0.7759033680362983  0.4602994305919970  0.2175635701442461
  0.5057135560809901  0.3519459862723833  0.7778725815775706
  0.9691843338772942  0.2039317125032476  0.1703462569735862
  0.7504098439569384  0.6214423490479074  0.7143078523045102
  0.7234708728098328  0.9351447383574163  0.2340919525269207
  0.2142389439954844  0.6075243434449084  0.8142348972763780
  0.2597524174479747  0.9479991530076286  0.1338648741934350
  0.0187799738922399  0.8539987129999976  0.6693068029990082
  0.4546651822247835  0.7017317973666122  0.2791482387986748
  0.9851694612926796  0.0310538835788382  0.4341240958975441
  0.9847879954260537  0.0274149825695984  0.9317082424177425
  0.4895725542984019  0.5247719994873692  0.5140014483799459
  0.4895510434040953  0.5285642922519025  0.0161990493732770
 
  0.00000000E+00  0.00000000E+00  0.00000000E+00
  0.00000000E+00  0.00000000E+00  0.00000000E+00
  0.00000000E+00  0.00000000E+00  0.00000000E+00
  0.00000000E+00  0.00000000E+00  0.00000000E+00
  0.00000000E+00  0.00000000E+00  0.00000000E+00
  0.00000000E+00  0.00000000E+00  0.00000000E+00
  0.00000000E+00  0.00000000E+00  0.00000000E+00
  0.00000000E+00  0.00000000E+00  0.00000000E+00
  0.00000000E+00  0.00000000E+00  0.00000000E+00
  0.00000000E+00  0.00000000E+00  0.00000000E+00
  0.00000000E+00  0.00000000E+00  0.00000000E+00
  0.00000000E+00  0.00000000E+00  0.00000000E+00
  0.00000000E+00  0.00000000E+00  0.00000000E+00
  0.00000000E+00  0.00000000E+00  0.00000000E+00
  0.00000000E+00  0.00000000E+00  0.00000000E+00
  0.00000000E+00  0.00000000E+00  0.00000000E+00
  0.00000000E+00  0.00000000E+00  0.00000000E+00
  0.00000000E+00  0.00000000E+00  0.00000000E+00
  0.00000000E+00  0.00000000E+00  0.00000000E+00
  0.00000000E+00  0.00000000E+00  0.00000000E+00
