Poscar file generated with pyiron       
   1.00000000000000     
     8.4768843867273969    0.0109668110269562   -0.1870540150839610
    -0.0675369537868832   13.9682155112278910    0.1816392398534851
     0.1432723931644223   -0.0949479505240437    7.9785360288402520
   Cs   I    Pb
     4    12     4
Direct
  0.4839579115404279  0.1477463377005535  0.2654169091836405
 -0.0172696356247202  0.3314569925579631  0.7814705175700121
 -0.0091494607699056  0.6485346582676830  0.2798945225683833
  0.4765407737536548  0.8286786172847580  0.7684830627606648
  0.2310685461498165  0.0910647677848765  0.6763097941755734
  0.2343970808472998  0.3894007934469450  0.3689071392511392
  0.7143682556376451  0.0724662658481295  0.6743361187538132
  0.7510407237703014  0.4038191637254130  0.3726417950667187
  0.5026263618691089  0.3078287141942469  0.8744102151416815
  0.9645785250022662  0.1704419544559228  0.1714932093284051
  0.7385147497468280  0.5890004466693926  0.8708220592974409
  0.7302975493194711  0.8886807501843151  0.1744924901813573
  0.2226765161051179  0.5754812575980460  0.8707909037126875
  0.2456417794913651  0.9035220150353757  0.1764723006606282
 -0.0001539311895890  0.8080472822848058  0.6715834399671482
  0.4711947466603384  0.6706082131607430  0.3744460406575790
  0.9811093954471716  0.9897693284466582  0.4347102467828032
  0.9803885533895310 -0.0111279120899137  0.9343267484336624
  0.4859049835293344  0.4887006435732646  0.6113741549884281
  0.4877891147726898  0.4896448411341584  0.1116328936842540
 
  0.00000000E+00  0.00000000E+00  0.00000000E+00
  0.00000000E+00  0.00000000E+00  0.00000000E+00
  0.00000000E+00  0.00000000E+00  0.00000000E+00
  0.00000000E+00  0.00000000E+00  0.00000000E+00
  0.00000000E+00  0.00000000E+00  0.00000000E+00
  0.00000000E+00  0.00000000E+00  0.00000000E+00
  0.00000000E+00  0.00000000E+00  0.00000000E+00
  0.00000000E+00  0.00000000E+00  0.00000000E+00
  0.00000000E+00  0.00000000E+00  0.00000000E+00
  0.00000000E+00  0.00000000E+00  0.00000000E+00
  0.00000000E+00  0.00000000E+00  0.00000000E+00
  0.00000000E+00  0.00000000E+00  0.00000000E+00
  0.00000000E+00  0.00000000E+00  0.00000000E+00
  0.00000000E+00  0.00000000E+00  0.00000000E+00
  0.00000000E+00  0.00000000E+00  0.00000000E+00
  0.00000000E+00  0.00000000E+00  0.00000000E+00
  0.00000000E+00  0.00000000E+00  0.00000000E+00
  0.00000000E+00  0.00000000E+00  0.00000000E+00
  0.00000000E+00  0.00000000E+00  0.00000000E+00
  0.00000000E+00  0.00000000E+00  0.00000000E+00
