Poscar file generated with pyiron       
   1.00000000000000     
     8.2447601310632752    0.1386900491495272    1.3799964390063033
    -0.0040303756985634   14.6718744219269119   -1.0510341526632745
     0.0268615235240653   -0.0484060025346807    7.8462604206705242
   Cs   I    Pb
     4    12     4
Direct
  0.4727366655721211  0.1860948422144077  0.2962141697121867
  0.9727893925454066  0.3259345305869724  0.7623254275906129
 -0.0239066048524955  0.6672607869853542  0.3049948220688151
  0.4673719235800271  0.8444041061682453  0.7545504412301639
  0.2403963864321214  0.0807869729714847  0.7267106422587062
  0.2046323135907197  0.4304978290794836  0.3328222062936456
  0.7036165621840934  0.1029198088734822  0.8342377658851285
  0.7414822917003555  0.4090687953439079  0.2258064993490201
  0.4526970956414842  0.3323909342620122  0.7692830084485731
  0.9934566996474431  0.1788350944820826  0.2888653474155118
  0.7688338998680232  0.5712654714541833  0.7502326440406497
  0.6752840113042838  0.9409031898281007  0.3097298455810565
  0.2318508215898771  0.6140351669465807  0.8486886774876178
  0.2114016009443529  0.8968223325328784  0.2110839948375655
  0.9445025239412711  0.8299086493090521  0.7448694731100527
  0.4988841598306852  0.6814745290016542  0.3138512314713909
  0.9626729312109006  0.0042586568866748  0.5184299981982567
  0.9629020240971787  0.0038926377929434  0.0205211299428640
  0.4822215242756517  0.5074371747367158  0.5412258914696245
  0.4813164380649823  0.5073596754480462  0.0387585059321651
 
  0.00000000E+00  0.00000000E+00  0.00000000E+00
  0.00000000E+00  0.00000000E+00  0.00000000E+00
  0.00000000E+00  0.00000000E+00  0.00000000E+00
  0.00000000E+00  0.00000000E+00  0.00000000E+00
  0.00000000E+00  0.00000000E+00  0.00000000E+00
  0.00000000E+00  0.00000000E+00  0.00000000E+00
  0.00000000E+00  0.00000000E+00  0.00000000E+00
  0.00000000E+00  0.00000000E+00  0.00000000E+00
  0.00000000E+00  0.00000000E+00  0.00000000E+00
  0.00000000E+00  0.00000000E+00  0.00000000E+00
  0.00000000E+00  0.00000000E+00  0.00000000E+00
  0.00000000E+00  0.00000000E+00  0.00000000E+00
  0.00000000E+00  0.00000000E+00  0.00000000E+00
  0.00000000E+00  0.00000000E+00  0.00000000E+00
  0.00000000E+00  0.00000000E+00  0.00000000E+00
  0.00000000E+00  0.00000000E+00  0.00000000E+00
  0.00000000E+00  0.00000000E+00  0.00000000E+00
  0.00000000E+00  0.00000000E+00  0.00000000E+00
  0.00000000E+00  0.00000000E+00  0.00000000E+00
  0.00000000E+00  0.00000000E+00  0.00000000E+00
