Poscar file generated with pyiron       
   1.00000000000000     
     8.4733488849151897   -0.0009709501134730   -0.0744946676609561
    -0.0323194813213306   13.9733075719957043    0.0458843999703196
     0.1580196187798140   -0.0204278032292936    7.9796541427986822
   Cs   I    Pb
     4    12     4
Direct
  0.4864077521415579  0.1605397721774956  0.2436803346949797
  0.9690067757801812  0.3413022589370232  0.7565715759959482
  0.9739343747356645  0.6603062409705652  0.2583846448375973
  0.4826168774196242  0.8430029656041085  0.7416426924464399
  0.2364231451662314  0.0978773431881371  0.6512770463510551
  0.2194995153241405  0.4038351024422654  0.3492157064481907
  0.7200734708522538  0.0907644300925391  0.6561744085777692
  0.7361179382996726  0.4131294026294018  0.3425556368506736
  0.4821123252823371  0.3198219312198159  0.8508730132626698
 -0.0275867337189647  0.1825807720400647  0.1491537788655925
  0.7284696867846268  0.5986666724043300  0.8430749993458574
  0.7264999580041250  0.9041420907122633  0.1578684976076664
  0.2106285954913982  0.5887706837644564  0.8483615897179971
  0.2441785818687884  0.9136701580698192  0.1502799553759128
  0.9905319245604459  0.8202186935519316  0.6493416210858214
  0.4617792947008630  0.6824558393186574  0.3502288257908861
  0.9824823644458557  0.0021194721061651  0.4130655708376992
 -0.0183550402453201  0.0005617427335562  0.9133604091866134
  0.4725290362156978  0.5007072507706083  0.5864463792524056
  0.4734579900471119  0.5018570869291824  0.0861004272028205
 
  0.00000000E+00  0.00000000E+00  0.00000000E+00
  0.00000000E+00  0.00000000E+00  0.00000000E+00
  0.00000000E+00  0.00000000E+00  0.00000000E+00
  0.00000000E+00  0.00000000E+00  0.00000000E+00
  0.00000000E+00  0.00000000E+00  0.00000000E+00
  0.00000000E+00  0.00000000E+00  0.00000000E+00
  0.00000000E+00  0.00000000E+00  0.00000000E+00
  0.00000000E+00  0.00000000E+00  0.00000000E+00
  0.00000000E+00  0.00000000E+00  0.00000000E+00
  0.00000000E+00  0.00000000E+00  0.00000000E+00
  0.00000000E+00  0.00000000E+00  0.00000000E+00
  0.00000000E+00  0.00000000E+00  0.00000000E+00
  0.00000000E+00  0.00000000E+00  0.00000000E+00
  0.00000000E+00  0.00000000E+00  0.00000000E+00
  0.00000000E+00  0.00000000E+00  0.00000000E+00
  0.00000000E+00  0.00000000E+00  0.00000000E+00
  0.00000000E+00  0.00000000E+00  0.00000000E+00
  0.00000000E+00  0.00000000E+00  0.00000000E+00
  0.00000000E+00  0.00000000E+00  0.00000000E+00
  0.00000000E+00  0.00000000E+00  0.00000000E+00
