Poscar file generated with pyiron       
   1.00000000000000     
     8.4638839640011003    0.2436455721192358    0.2621115910584014
    -0.4349705725730024   13.9285073389449021   -0.0896091132424375
    -0.1938915835033349    0.0445636675306856    7.9842051569489829
   Cs   I    Pb
     4    12     4
Direct
  0.4865746003633541  0.1800247519314992  0.2603156531841374
  0.9699033696337710  0.3616668995817682  0.7730363958615770
  0.9772367720869002  0.6788020691501582  0.2744133546273013
  0.4788593482362314  0.8628165812790061  0.7588088111688246
  0.2337400748544744  0.1194761646373204  0.6664117134211572
  0.2218749120564197  0.4222525293798556  0.3664023055870189
  0.7181064357649357  0.1085777535345823  0.6702644510200171
  0.7375177447271373  0.4328761866965466  0.3633421905429154
  0.4868256937378452  0.3393581378431177  0.8688342683931047
  0.9685159221843266  0.2022399404902563  0.1643373040728897
  0.7279692380157908  0.6195928524206162  0.8628555052275799
  0.7281279631552668  0.9217296655095323  0.1701756946622783
  0.2114234174887637  0.6075127541927595  0.8670278684981354
  0.2447140762421066  0.9344335809809255  0.1664701569690947
 -0.0061752085215941  0.8393867433192902  0.6642414198939780
  0.4623378940643854  0.7022079298714690  0.3689744908178166
 -0.0182440451720405  0.0212802017837003  0.4276126902509663
 -0.0189658323516639  0.0202225016661629  0.9277085551748074
  0.4738369213805871  0.5203463926395184  0.6057275436291158
  0.4749696890619992  0.5213467461818836  0.1056374675879570
 
  0.00000000E+00  0.00000000E+00  0.00000000E+00
  0.00000000E+00  0.00000000E+00  0.00000000E+00
  0.00000000E+00  0.00000000E+00  0.00000000E+00
  0.00000000E+00  0.00000000E+00  0.00000000E+00
  0.00000000E+00  0.00000000E+00  0.00000000E+00
  0.00000000E+00  0.00000000E+00  0.00000000E+00
  0.00000000E+00  0.00000000E+00  0.00000000E+00
  0.00000000E+00  0.00000000E+00  0.00000000E+00
  0.00000000E+00  0.00000000E+00  0.00000000E+00
  0.00000000E+00  0.00000000E+00  0.00000000E+00
  0.00000000E+00  0.00000000E+00  0.00000000E+00
  0.00000000E+00  0.00000000E+00  0.00000000E+00
  0.00000000E+00  0.00000000E+00  0.00000000E+00
  0.00000000E+00  0.00000000E+00  0.00000000E+00
  0.00000000E+00  0.00000000E+00  0.00000000E+00
  0.00000000E+00  0.00000000E+00  0.00000000E+00
  0.00000000E+00  0.00000000E+00  0.00000000E+00
  0.00000000E+00  0.00000000E+00  0.00000000E+00
  0.00000000E+00  0.00000000E+00  0.00000000E+00
  0.00000000E+00  0.00000000E+00  0.00000000E+00
