Poscar file generated with pyiron       
   1.00000000000000     
     8.2362281069764585    0.0473152390887117    1.3952411260098716
    -0.1396127215309957   14.5440460454594316    0.1650694816165978
     0.1112912687996207   -0.0506843709225974    7.9126733933606364
   Cs   I    Pb
     4    12     4
Direct
  0.4907929897571071  0.1996705808813346  0.2043741390854774
 -0.0231362894637808  0.3567955169132619  0.7590685504746861
  0.9732932152507894  0.7030015088433159  0.2533724823969510
  0.4872085340636726  0.8547287400241570  0.7069679017013967
  0.2522784731146536  0.1214018991766007  0.6463901319863977
  0.2153106205055952  0.4327523184875769  0.3161181957088797
  0.7132334660578006  0.1080030879187832  0.7508377532402787
  0.7538011932522226  0.4504779327818620  0.2110433117581138
  0.4793109687107262  0.3525718319363668  0.7794311718101966
  0.9875779150118178  0.2039661686981669  0.1832688309617245
  0.7438059456067423  0.6161815050024581  0.7106138739332991
  0.7189811263719807  0.9418495401873661  0.2525199030330340
  0.2034956776472506  0.6113874648527747  0.8172489188251240
  0.2596502326351183  0.9437179441295031  0.1455177629013681
  0.0013816466254949  0.8529709951340236  0.6841193752955991
  0.4596361632216205  0.7034775221590932  0.2798758689448545
 -0.0107313432206329  0.0304806432851472  0.4479647239056008
  0.9888307067487261  0.0267229079395224  0.9474072311915643
  0.4757882689474962  0.5259251890998836  0.5148077852673170
  0.4756200518891270  0.5299242878223066  0.0154341135275904
 
  0.00000000E+00  0.00000000E+00  0.00000000E+00
  0.00000000E+00  0.00000000E+00  0.00000000E+00
  0.00000000E+00  0.00000000E+00  0.00000000E+00
  0.00000000E+00  0.00000000E+00  0.00000000E+00
  0.00000000E+00  0.00000000E+00  0.00000000E+00
  0.00000000E+00  0.00000000E+00  0.00000000E+00
  0.00000000E+00  0.00000000E+00  0.00000000E+00
  0.00000000E+00  0.00000000E+00  0.00000000E+00
  0.00000000E+00  0.00000000E+00  0.00000000E+00
  0.00000000E+00  0.00000000E+00  0.00000000E+00
  0.00000000E+00  0.00000000E+00  0.00000000E+00
  0.00000000E+00  0.00000000E+00  0.00000000E+00
  0.00000000E+00  0.00000000E+00  0.00000000E+00
  0.00000000E+00  0.00000000E+00  0.00000000E+00
  0.00000000E+00  0.00000000E+00  0.00000000E+00
  0.00000000E+00  0.00000000E+00  0.00000000E+00
  0.00000000E+00  0.00000000E+00  0.00000000E+00
  0.00000000E+00  0.00000000E+00  0.00000000E+00
  0.00000000E+00  0.00000000E+00  0.00000000E+00
  0.00000000E+00  0.00000000E+00  0.00000000E+00
