Poscar file generated with pyiron       
   1.00000000000000     
     8.2528040100864466    0.1848198257717767    1.3742331066407603
    -0.0778491107347412   14.6511163971991643   -1.0740666492791850
     0.0344468004807673   -0.0530310469871792    7.8502308103369973
   Cs   I    Pb
     4    12     4
Direct
  0.4822878450767962  0.1730947772357641  0.2856604954897373
  0.9844746147147827  0.3166504733200826  0.7500100288132114
 -0.0156115674714899  0.6578233961601441  0.2908837738423297
  0.4804711054220030  0.8314334602451300  0.7439827374478117
  0.2524273363642139  0.0698605100752766  0.7182144979351673
  0.2135671674564151  0.4194310288277276  0.3172029573801338
  0.7158502148819850  0.0920552293292205  0.8243030225038467
  0.7506498767195430  0.3980328704040160  0.2108651833800334
  0.4643706413734918  0.3211854371184912  0.7539364548954779
  0.0020772051716587  0.1684149481979806  0.2808574505978175
  0.7756374816508177  0.5621538917216301  0.7359366774084313
  0.6895283360175741  0.9277989302805962  0.2999465060986718
  0.2390112208281579  0.6012689510189073  0.8349651428390547
  0.2258900915040658  0.8877280395544660  0.2001485940150157
  0.9580731448343248  0.8190614199778086  0.7343324716947414
  0.5066968245886979  0.6706066704028109  0.3008874532201800
  0.9748678638309304 -0.0063364265169497  0.5088261599874279
  0.9753392565458593  0.9931253428971429  0.0105948020883199
  0.4907683403847797  0.4959712699122876  0.5264662428716942
  0.4903510970968806  0.4964506869467324  0.0247752520839049
 
  0.00000000E+00  0.00000000E+00  0.00000000E+00
  0.00000000E+00  0.00000000E+00  0.00000000E+00
  0.00000000E+00  0.00000000E+00  0.00000000E+00
  0.00000000E+00  0.00000000E+00  0.00000000E+00
  0.00000000E+00  0.00000000E+00  0.00000000E+00
  0.00000000E+00  0.00000000E+00  0.00000000E+00
  0.00000000E+00  0.00000000E+00  0.00000000E+00
  0.00000000E+00  0.00000000E+00  0.00000000E+00
  0.00000000E+00  0.00000000E+00  0.00000000E+00
  0.00000000E+00  0.00000000E+00  0.00000000E+00
  0.00000000E+00  0.00000000E+00  0.00000000E+00
  0.00000000E+00  0.00000000E+00  0.00000000E+00
  0.00000000E+00  0.00000000E+00  0.00000000E+00
  0.00000000E+00  0.00000000E+00  0.00000000E+00
  0.00000000E+00  0.00000000E+00  0.00000000E+00
  0.00000000E+00  0.00000000E+00  0.00000000E+00
  0.00000000E+00  0.00000000E+00  0.00000000E+00
  0.00000000E+00  0.00000000E+00  0.00000000E+00
  0.00000000E+00  0.00000000E+00  0.00000000E+00
  0.00000000E+00  0.00000000E+00  0.00000000E+00
