Poscar file generated with pyiron       
   1.00000000000000     
     8.4564284509433989    0.1545997367922562    0.3927871398380174
    -0.2586597129628801   13.8912749608596879    0.0827185212614151
    -0.3311351620287702   -0.0595685125605107    8.0043337353330024
   Cs   I    Pb
     4    12     4
Direct
  0.4898599677603157  0.1715051856611130  0.2724375734915963
  0.9826374953627975  0.3554807918889643  0.7877335636999513
  0.9820198538603878  0.6707422986850070  0.2882145376817167
  0.4880901556572223  0.8563239261238950  0.7721007544880834
  0.2448135313786112  0.1069037844867081  0.6771694797926197
  0.2249241251808678  0.4206396519273907  0.3822034042413854
  0.7290880215571484  0.1074452623587303  0.6810400028589346
  0.7401038811392894  0.4192875411383226  0.3799618452672713
  0.4808248355967655  0.3321056580847409  0.8849323255751043
 -0.0140617497170880  0.1953751364704160  0.1753334730149049
  0.7415092764396471  0.6068223800302798  0.8795500910839699
  0.7294778820097099  0.9197556127909853  0.1799129071384365
  0.2259808643734784  0.6077523382590804  0.8826437998692039
  0.2447390331746025  0.9203691458493315  0.1781703608615814
 -0.0135596682523698  0.8318015866806858  0.6751215071889523
  0.4838453423558454  0.6956966440656142  0.3848948627660890
 -0.0130287026477014  0.0140858043267892  0.4385826042308587
 -0.0125173354526604  0.0130892954243040  0.9385414690914682
  0.4828266772366885  0.5132268845479641  0.6215420763682499
  0.4829492317248116  0.5143804524017661  0.1216458680825434
 
  0.00000000E+00  0.00000000E+00  0.00000000E+00
  0.00000000E+00  0.00000000E+00  0.00000000E+00
  0.00000000E+00  0.00000000E+00  0.00000000E+00
  0.00000000E+00  0.00000000E+00  0.00000000E+00
  0.00000000E+00  0.00000000E+00  0.00000000E+00
  0.00000000E+00  0.00000000E+00  0.00000000E+00
  0.00000000E+00  0.00000000E+00  0.00000000E+00
  0.00000000E+00  0.00000000E+00  0.00000000E+00
  0.00000000E+00  0.00000000E+00  0.00000000E+00
  0.00000000E+00  0.00000000E+00  0.00000000E+00
  0.00000000E+00  0.00000000E+00  0.00000000E+00
  0.00000000E+00  0.00000000E+00  0.00000000E+00
  0.00000000E+00  0.00000000E+00  0.00000000E+00
  0.00000000E+00  0.00000000E+00  0.00000000E+00
  0.00000000E+00  0.00000000E+00  0.00000000E+00
  0.00000000E+00  0.00000000E+00  0.00000000E+00
  0.00000000E+00  0.00000000E+00  0.00000000E+00
  0.00000000E+00  0.00000000E+00  0.00000000E+00
  0.00000000E+00  0.00000000E+00  0.00000000E+00
  0.00000000E+00  0.00000000E+00  0.00000000E+00
