SYSTEM=MD_test #jobname
PREC=Normal
ALGO=Normal
LREAL=.FALSE.
LWAVE=.FALSE.
LORBIT=11
ISMEAR=0
LASPH=.TRUE.
EDIFF=1e-05
ENCUT=400
SIGMA=0.05
LCHARG=.FALSE.
ISPIN=1
IVDW=12
KPAR=8
NSW=20000
POTIM=0.5
TEBEG=600
TEEND=600
ISYM=0
IBRION=0
ISIF=3
NWRITE=0
MDALGO=3
LANGEVIN_GAMMA_L=10.0
PMASS=1000.0
NBLOCK=1
LANGEVIN_GAMMA=10.0 10.0 10.0 
NCORE=18
