Poscar file generated with pyiron       
   1.00000000000000     
     4.7800985783235390    0.0456941994181516    0.2246513734394208
    -0.1098638279762218   10.4755910263578471    0.2743474748045208
    -0.8314196203216110   -0.4698428152082403   17.7875876617977973
   Cs   I    Pb
     4    12     4
Direct
  0.6249079123969132  0.0024285628390936  0.3452265640490199
  0.1249262085993064  0.8414976860921820  0.6884907196104012
  0.6283432516476785  0.5026896328793998  0.1885923922198749
  0.1282855510166964  0.3418246194174450  0.8453076910005076
  0.6315007536463767  0.2610273143591791  0.0152415330297190
  0.1318462220073992  0.5836804556038628  0.0185263264172816
  0.6202597713301283  0.7602455535512622  0.5185112301917646
  0.1203154186202181  0.0828975522441407  0.5155576481190507
  0.1320041721410829  0.9568675579499401  0.9037546403554304
  0.6315158268113903  0.8877024483477709  0.1299689254373430
  0.1202180819508882  0.4564250964976768  0.6301280737094450
  0.6199527062070134  0.3867611331727344  0.4039938577374281
  0.1271661104385402  0.2200188591311333  0.2319167944518670
  0.6275596540775585  0.6243257716737256  0.8018052608889767
  0.1258379852911021  0.7197418146531827  0.3020110145194577
  0.6256216359156079  0.1240198182771412  0.7322704958179925
  0.1316830019963184  0.0820750760010699  0.0779638879914142
  0.6323066463877128  0.7626422106583577  0.9557117099920887
  0.1197003429195609  0.5811886985111874  0.4558489581059632
  0.6198604270058131  0.2618654023414540  0.5782961474754373
 
  0.00000000E+00  0.00000000E+00  0.00000000E+00
  0.00000000E+00  0.00000000E+00  0.00000000E+00
  0.00000000E+00  0.00000000E+00  0.00000000E+00
  0.00000000E+00  0.00000000E+00  0.00000000E+00
  0.00000000E+00  0.00000000E+00  0.00000000E+00
  0.00000000E+00  0.00000000E+00  0.00000000E+00
  0.00000000E+00  0.00000000E+00  0.00000000E+00
  0.00000000E+00  0.00000000E+00  0.00000000E+00
  0.00000000E+00  0.00000000E+00  0.00000000E+00
  0.00000000E+00  0.00000000E+00  0.00000000E+00
  0.00000000E+00  0.00000000E+00  0.00000000E+00
  0.00000000E+00  0.00000000E+00  0.00000000E+00
  0.00000000E+00  0.00000000E+00  0.00000000E+00
  0.00000000E+00  0.00000000E+00  0.00000000E+00
  0.00000000E+00  0.00000000E+00  0.00000000E+00
  0.00000000E+00  0.00000000E+00  0.00000000E+00
  0.00000000E+00  0.00000000E+00  0.00000000E+00
  0.00000000E+00  0.00000000E+00  0.00000000E+00
  0.00000000E+00  0.00000000E+00  0.00000000E+00
  0.00000000E+00  0.00000000E+00  0.00000000E+00
