Poscar file generated with pyiron       
   1.00000000000000     
     4.7864542314045542    0.0521390036803435    0.0979550534366471
    -0.1178738948525129   10.4649616036207291    0.1903837287841504
    -0.3567694422867094   -0.3307650288977085   17.8043910856082235
   Cs   I    Pb
     4    12     4
Direct
  0.7061510639239956  0.9871002794230334  0.3332329260341427
  0.2087397254129071  0.8244066054074307  0.6766464072950569
  0.7082624656059191  0.4869394673163008  0.1767758515130395
  0.2109941822793756  0.3239430562005542  0.8335100031363336
  0.7123940328457685  0.2442090001193284  0.0034285942374961
  0.2120344495518637  0.5665406061533790  0.0067098319479209
  0.7048018779836692  0.7446176964105718  0.5067898146241382
  0.2053928009531521  0.0667991659976564  0.5033345782623286
  0.2129907226605684  0.9398712793264647  0.8918749638008896
  0.7122100933959180  0.8707812154528852  0.1180696607966616
  0.2055220976048857  0.4400244101324876  0.6180884035643147
  0.7051006393318432  0.3713868820637508  0.3919095544198659
  0.2074764412842337  0.2043217444150011  0.2197976292477541
  0.7098806816279906  0.6067531390328528  0.7899724265744620
  0.2071336413455331  0.7043962639918969  0.2900858537119761
  0.7090162563988365  0.1070003601035493  0.7199434578450071
  0.2127378367889659  0.0652445815636862  0.0661393678998153
  0.7129985437009508  0.7454225986592352  0.9437597106758631
  0.2045884320077476  0.5657259588490618  0.4439797110370681
  0.7053761163347987  0.2456960973654079  0.5661215979906756
 
  0.00000000E+00  0.00000000E+00  0.00000000E+00
  0.00000000E+00  0.00000000E+00  0.00000000E+00
  0.00000000E+00  0.00000000E+00  0.00000000E+00
  0.00000000E+00  0.00000000E+00  0.00000000E+00
  0.00000000E+00  0.00000000E+00  0.00000000E+00
  0.00000000E+00  0.00000000E+00  0.00000000E+00
  0.00000000E+00  0.00000000E+00  0.00000000E+00
  0.00000000E+00  0.00000000E+00  0.00000000E+00
  0.00000000E+00  0.00000000E+00  0.00000000E+00
  0.00000000E+00  0.00000000E+00  0.00000000E+00
  0.00000000E+00  0.00000000E+00  0.00000000E+00
  0.00000000E+00  0.00000000E+00  0.00000000E+00
  0.00000000E+00  0.00000000E+00  0.00000000E+00
  0.00000000E+00  0.00000000E+00  0.00000000E+00
  0.00000000E+00  0.00000000E+00  0.00000000E+00
  0.00000000E+00  0.00000000E+00  0.00000000E+00
  0.00000000E+00  0.00000000E+00  0.00000000E+00
  0.00000000E+00  0.00000000E+00  0.00000000E+00
  0.00000000E+00  0.00000000E+00  0.00000000E+00
  0.00000000E+00  0.00000000E+00  0.00000000E+00
