Poscar file generated with pyiron       
   1.00000000000000     
     4.7868841609870758    0.0186326591008459    0.0715578182093674
    -0.0446129119806444   10.4621234675296702    0.3126550525540699
    -0.2628781641481370   -0.5339651343109080   17.8024328804133951
   Cs   I    Pb
     4    12     4
Direct
  0.7130335542255499  0.0846765992519285  0.3528067497748030
  0.2126547508854152  0.9198402414190380  0.6964178538430520
  0.7131471400546812  0.5862162900903428  0.1966808345055142
  0.2129327461565403  0.4215156547532284  0.8530584975496774
  0.7131487956518103  0.3441182981487911  0.0232884893564548
  0.2133578558483752  0.6657506802861985  0.0265823691358314
  0.7119016400124610  0.8400814484588960  0.5264031446607658
  0.2122683109647282  0.1618487676440030  0.5232474014583859
  0.2137271166570458  0.0388319755374378  0.9119243595200800
  0.7128801486584205  0.9705240759354817  0.1379569205919373
  0.2121673802272278  0.5352314922596504  0.6380944511679901
  0.7119720127027320  0.4666842005082691  0.4120176635159132
  0.2134631680352436  0.3032887072058441  0.2398650905828211
  0.7127882390439191  0.7043916415435616  0.8104878352328166
  0.2132954220089312  0.8014593168563098  0.3106294171868166
  0.7131880741400596  0.2026385203139229  0.7400557940071762
  0.2132359575016818  0.1651497885152420  0.0859482807466526
  0.7136779018393308  0.8445384821286868  0.9639378094149238
  0.2118069846520464  0.6609689727622170  0.4640227054831286
  0.7123934659488438  0.3406479925332300  0.5861233015292712
 
  0.00000000E+00  0.00000000E+00  0.00000000E+00
  0.00000000E+00  0.00000000E+00  0.00000000E+00
  0.00000000E+00  0.00000000E+00  0.00000000E+00
  0.00000000E+00  0.00000000E+00  0.00000000E+00
  0.00000000E+00  0.00000000E+00  0.00000000E+00
  0.00000000E+00  0.00000000E+00  0.00000000E+00
  0.00000000E+00  0.00000000E+00  0.00000000E+00
  0.00000000E+00  0.00000000E+00  0.00000000E+00
  0.00000000E+00  0.00000000E+00  0.00000000E+00
  0.00000000E+00  0.00000000E+00  0.00000000E+00
  0.00000000E+00  0.00000000E+00  0.00000000E+00
  0.00000000E+00  0.00000000E+00  0.00000000E+00
  0.00000000E+00  0.00000000E+00  0.00000000E+00
  0.00000000E+00  0.00000000E+00  0.00000000E+00
  0.00000000E+00  0.00000000E+00  0.00000000E+00
  0.00000000E+00  0.00000000E+00  0.00000000E+00
  0.00000000E+00  0.00000000E+00  0.00000000E+00
  0.00000000E+00  0.00000000E+00  0.00000000E+00
  0.00000000E+00  0.00000000E+00  0.00000000E+00
  0.00000000E+00  0.00000000E+00  0.00000000E+00
