Poscar file generated with pyiron       
   1.00000000000000     
     4.7841700698666116    0.1016461114276090    0.1308971544028892
    -0.2322032854883189   10.4670407387064035    0.1745884366242969
    -0.4822136140993593   -0.2972146112802213   17.8019794773755180
   Cs   I    Pb
     4    12     4
Direct
  0.6896080942140592  0.9748919067642901  0.3381487003840352
  0.1947472344678559  0.8114461437996252  0.6815962908760060
  0.6911138963649673  0.4753089778669891  0.1820518466068103
  0.1958567239807009  0.3121344256634901  0.8384159126121586
  0.6954008858629475  0.2330399607299293  0.0084513512260790
  0.1943193682804606  0.5552984931999712  0.0120125555081982
  0.6907248189962740  0.7312979705860200  0.5117928528783964
  0.1900786003369694  0.0533879040698956  0.5083300845768275
  0.1948670356972390  0.9285190160387197  0.8970843419370741
  0.6946873947763594  0.8596061464558330  0.1233772650025974
  0.1903883406136924  0.4263109507923412  0.6231553451492172
  0.6901529766918304  0.3579751162440204  0.3970357252471025
  0.1909240325714067  0.1923799903656422  0.2250461261252153
  0.6956779879270424  0.5952048690674917  0.7956935411150967
  0.1898822219969553  0.6921685404323229  0.2955582271207481
  0.6946085560652622  0.0939048606696727  0.7252218901238618
  0.1956925641604148  0.0541136940544025  0.0712350186477560
  0.6950544345666428  0.7344160458182609  0.9493424204451931
  0.1895962494890181  0.5522349822492717  0.4491102851984014
  0.6903627597278145  0.2319865329569178  0.5712232831945934
 
  0.00000000E+00  0.00000000E+00  0.00000000E+00
  0.00000000E+00  0.00000000E+00  0.00000000E+00
  0.00000000E+00  0.00000000E+00  0.00000000E+00
  0.00000000E+00  0.00000000E+00  0.00000000E+00
  0.00000000E+00  0.00000000E+00  0.00000000E+00
  0.00000000E+00  0.00000000E+00  0.00000000E+00
  0.00000000E+00  0.00000000E+00  0.00000000E+00
  0.00000000E+00  0.00000000E+00  0.00000000E+00
  0.00000000E+00  0.00000000E+00  0.00000000E+00
  0.00000000E+00  0.00000000E+00  0.00000000E+00
  0.00000000E+00  0.00000000E+00  0.00000000E+00
  0.00000000E+00  0.00000000E+00  0.00000000E+00
  0.00000000E+00  0.00000000E+00  0.00000000E+00
  0.00000000E+00  0.00000000E+00  0.00000000E+00
  0.00000000E+00  0.00000000E+00  0.00000000E+00
  0.00000000E+00  0.00000000E+00  0.00000000E+00
  0.00000000E+00  0.00000000E+00  0.00000000E+00
  0.00000000E+00  0.00000000E+00  0.00000000E+00
  0.00000000E+00  0.00000000E+00  0.00000000E+00
  0.00000000E+00  0.00000000E+00  0.00000000E+00
