Poscar file generated with pyiron       
   1.00000000000000     
     4.7852060479561986    0.0752394141074686    0.1379500411663616
    -0.1721105655612958   10.4612579096183840    0.2955687535773089
    -0.5088893906679951   -0.5116840833225355   17.8072066767216626
   Cs   I    Pb
     4    12     4
Direct
  0.6827996902720864  0.9736699741237936  0.3411861593217063
  0.1868298088913174  0.8077834783751515  0.6845028131064622
  0.6839699616525433  0.4761109858585437  0.1847642178645772
  0.1864422849439538  0.3105930647976287  0.8412630718666052
  0.6842889678544362  0.2348126576114568  0.0119753623687470
  0.1862322477206864  0.5567362924806245  0.0144532902594603
  0.6854858451288991  0.7282276884768519  0.5147902467793680
  0.1856839200359568  0.0500816024341387  0.5115347317770718
  0.1859404470683370  0.9300873591964314  0.9000783592141296
  0.6844400090129206  0.8608807348567771  0.1262388408602497
  0.1858027985136658  0.4238938958746066  0.6261219112525712
  0.6851037131337608  0.3554184489792203  0.4000609538158719
  0.1834271585182140  0.1931216282231828  0.2283210835660194
  0.6866313008553099  0.5939729471186065  0.7990689092775809
  0.1838720898291129  0.6909400547629342  0.2990354636116502
  0.6869949879806978  0.0911830908594307  0.7279681027229180
  0.1835381779229363  0.0555286444351513  0.0744091926024985
  0.6869291732282885  0.7356294298981100  0.9520168410584768
  0.1845917656270942  0.5494980914230357  0.4520984543702662
  0.6856564352299280  0.2291591311198015  0.5742028072136185
 
  0.00000000E+00  0.00000000E+00  0.00000000E+00
  0.00000000E+00  0.00000000E+00  0.00000000E+00
  0.00000000E+00  0.00000000E+00  0.00000000E+00
  0.00000000E+00  0.00000000E+00  0.00000000E+00
  0.00000000E+00  0.00000000E+00  0.00000000E+00
  0.00000000E+00  0.00000000E+00  0.00000000E+00
  0.00000000E+00  0.00000000E+00  0.00000000E+00
  0.00000000E+00  0.00000000E+00  0.00000000E+00
  0.00000000E+00  0.00000000E+00  0.00000000E+00
  0.00000000E+00  0.00000000E+00  0.00000000E+00
  0.00000000E+00  0.00000000E+00  0.00000000E+00
  0.00000000E+00  0.00000000E+00  0.00000000E+00
  0.00000000E+00  0.00000000E+00  0.00000000E+00
  0.00000000E+00  0.00000000E+00  0.00000000E+00
  0.00000000E+00  0.00000000E+00  0.00000000E+00
  0.00000000E+00  0.00000000E+00  0.00000000E+00
  0.00000000E+00  0.00000000E+00  0.00000000E+00
  0.00000000E+00  0.00000000E+00  0.00000000E+00
  0.00000000E+00  0.00000000E+00  0.00000000E+00
  0.00000000E+00  0.00000000E+00  0.00000000E+00
