Poscar file generated with pyiron       
   1.00000000000000     
     4.7824942871797775    0.0715684570289959    0.1971093096131334
    -0.1734330210659420   10.4653274889963637    0.3415724564990702
    -0.7327627322923510   -0.5915194106355341   17.7878261968595446
   Cs   I    Pb
     4    12     4
Direct
  0.6464477299055736  0.0497475664093231  0.3665796568678875
  0.1457532814162659  0.8864591437641445  0.7099478764515516
  0.6439386315456954  0.5484477908574676  0.2100615704667502
  0.1434583741230715  0.3852622919956746  0.8664757647263204
  0.6416263356346676  0.3049530542199361  0.0365315760653221
  0.1415686044548730  0.6270626118779082  0.0397920138527252
  0.6473896307760343  0.8078789715233590  0.5397526436617949
  0.1479928866481333  0.1301651047755388  0.5366374462942125
  0.1414790557068122  0.0006392727104793  0.9251762424989327
  0.6418613715653808  0.9318535864006595  0.1512935111349024
  0.1477273161073178  0.5031140939002087  0.6513527282196874
  0.6477377317251560  0.4344350631128459  0.4251852885462529
  0.1448260008926259  0.2655960577591106  0.2528333992505802
  0.6443517577988286  0.6684020239501272  0.8232545661109774
  0.1455069282391332  0.7668666191938089  0.3232507066400483
  0.6450350172091693  0.1691389365218890  0.7528537166946860
  0.1414600428913757  0.1261178342548875  0.0992402267955780
  0.6413301077759376  0.8061516908069905  0.9771697097435906
  0.1474771320370718  0.6288258377449762  0.4771206999419403
  0.6480190509795998  0.3089311943043301  0.5993464151723085
 
  0.00000000E+00  0.00000000E+00  0.00000000E+00
  0.00000000E+00  0.00000000E+00  0.00000000E+00
  0.00000000E+00  0.00000000E+00  0.00000000E+00
  0.00000000E+00  0.00000000E+00  0.00000000E+00
  0.00000000E+00  0.00000000E+00  0.00000000E+00
  0.00000000E+00  0.00000000E+00  0.00000000E+00
  0.00000000E+00  0.00000000E+00  0.00000000E+00
  0.00000000E+00  0.00000000E+00  0.00000000E+00
  0.00000000E+00  0.00000000E+00  0.00000000E+00
  0.00000000E+00  0.00000000E+00  0.00000000E+00
  0.00000000E+00  0.00000000E+00  0.00000000E+00
  0.00000000E+00  0.00000000E+00  0.00000000E+00
  0.00000000E+00  0.00000000E+00  0.00000000E+00
  0.00000000E+00  0.00000000E+00  0.00000000E+00
  0.00000000E+00  0.00000000E+00  0.00000000E+00
  0.00000000E+00  0.00000000E+00  0.00000000E+00
  0.00000000E+00  0.00000000E+00  0.00000000E+00
  0.00000000E+00  0.00000000E+00  0.00000000E+00
  0.00000000E+00  0.00000000E+00  0.00000000E+00
  0.00000000E+00  0.00000000E+00  0.00000000E+00
