Poscar file generated with pyiron       
   1.00000000000000     
     4.7845943726515703    0.0777502402255387    0.0726068042305691
    -0.1763545158908484   10.4692848374730474    0.0305576189358879
    -0.2727705940833312   -0.0539909557685844   17.8050117057181119
   Cs   I    Pb
     4    12     4
Direct
  0.7385249059256697  0.1123958240653468  0.3407588481098932
  0.2448940137584198  0.9486844989652082  0.6843672929933268
  0.7366109585406458  0.6117129037503248  0.1843874098388662
  0.2427043727028855  0.4477492775620546  0.8407716257647263
  0.7369864336552383  0.3682175034342575  0.0107005330221359
  0.2368317122024082  0.6901681784432285  0.0141404380077963
  0.7440593120107388  0.8700714935134919  0.5140970103133593
  0.2440406510513306  0.1921011829581843  0.5108553729754810
  0.2373358991505945  0.0634809620200364  0.8993408461228030
  0.7362568599892763  0.9950436853177838  0.1254334037892951
  0.2450509480696112  0.5652660288571842  0.6255165174847276
  0.7432587580654307  0.4967194827358856  0.3994043987054922
  0.2373580992619314  0.3288541608017297  0.2269879419320905
  0.7431914874323504  0.7306188992749039  0.7975153181436336
  0.2381182533638867  0.8296287717709310  0.2975411351211609
  0.7440750369921927  0.2314855035081227  0.7271516613821346
  0.2361135229453274  0.1893277116479848  0.0733717522774847
  0.7371243945486383  0.8690376833193674  0.9513619780790563
  0.2435858415157592  0.6911271577997837  0.4513958541046311
  0.7449482285490260  0.3709759430043233  0.5735150239737988
 
  0.00000000E+00  0.00000000E+00  0.00000000E+00
  0.00000000E+00  0.00000000E+00  0.00000000E+00
  0.00000000E+00  0.00000000E+00  0.00000000E+00
  0.00000000E+00  0.00000000E+00  0.00000000E+00
  0.00000000E+00  0.00000000E+00  0.00000000E+00
  0.00000000E+00  0.00000000E+00  0.00000000E+00
  0.00000000E+00  0.00000000E+00  0.00000000E+00
  0.00000000E+00  0.00000000E+00  0.00000000E+00
  0.00000000E+00  0.00000000E+00  0.00000000E+00
  0.00000000E+00  0.00000000E+00  0.00000000E+00
  0.00000000E+00  0.00000000E+00  0.00000000E+00
  0.00000000E+00  0.00000000E+00  0.00000000E+00
  0.00000000E+00  0.00000000E+00  0.00000000E+00
  0.00000000E+00  0.00000000E+00  0.00000000E+00
  0.00000000E+00  0.00000000E+00  0.00000000E+00
  0.00000000E+00  0.00000000E+00  0.00000000E+00
  0.00000000E+00  0.00000000E+00  0.00000000E+00
  0.00000000E+00  0.00000000E+00  0.00000000E+00
  0.00000000E+00  0.00000000E+00  0.00000000E+00
  0.00000000E+00  0.00000000E+00  0.00000000E+00
