Poscar file generated with pyiron       
   1.00000000000000     
     4.7788590490560647    0.0293177784971119    0.2537751756726910
    -0.0887951234066815   10.4702678992491069    0.3622413660223605
    -0.9450291962329321   -0.6229141746108288   17.7785651829920113
   Cs   I    Pb
     4    12     4
Direct
  0.6587829525310450  0.0078132140229918  0.3416086821943761
  0.1588253531887030  0.8449716553363961  0.6847990331422243
  0.6594072339234686  0.5076736978505026  0.1851653510837489
  0.1607785177841642  0.3454339754326394  0.8415663165757719
  0.6615093490840006  0.2657993298286642  0.0114989355121896
  0.1613683475807313  0.5878671082137286  0.0150137206737535
  0.6551793883957311  0.7649396054792136  0.5148166382885068
  0.1569862102184727  0.0873914641723288  0.5121152364286135
  0.1613503558232052  0.9609719709187599  0.9001944585571287
  0.6613317107230332  0.8925183482631714  0.1263604614578682
  0.1572534401952361  0.4609202119472403  0.6266347511340088
  0.6549433154364220  0.3913093201685702  0.4004381935320720
  0.1595118244293877  0.2249329692016876  0.2280177875877366
  0.6599722437216611  0.6282066947786903  0.7985182827987054
  0.1581369213107169  0.7244466153923961  0.2984856237820431
  0.6598632420635869  0.1276610883383124  0.7285829542259512
  0.1614854193331700  0.0866728843041206  0.0741389313317680
  0.6615959737988740  0.7666565934923711  0.9523631521898132
  0.1546647108170197  0.5860302224102442  0.4522982823737844
  0.6573106208377906  0.2662175367830808  0.5748529579589865
 
  0.00000000E+00  0.00000000E+00  0.00000000E+00
  0.00000000E+00  0.00000000E+00  0.00000000E+00
  0.00000000E+00  0.00000000E+00  0.00000000E+00
  0.00000000E+00  0.00000000E+00  0.00000000E+00
  0.00000000E+00  0.00000000E+00  0.00000000E+00
  0.00000000E+00  0.00000000E+00  0.00000000E+00
  0.00000000E+00  0.00000000E+00  0.00000000E+00
  0.00000000E+00  0.00000000E+00  0.00000000E+00
  0.00000000E+00  0.00000000E+00  0.00000000E+00
  0.00000000E+00  0.00000000E+00  0.00000000E+00
  0.00000000E+00  0.00000000E+00  0.00000000E+00
  0.00000000E+00  0.00000000E+00  0.00000000E+00
  0.00000000E+00  0.00000000E+00  0.00000000E+00
  0.00000000E+00  0.00000000E+00  0.00000000E+00
  0.00000000E+00  0.00000000E+00  0.00000000E+00
  0.00000000E+00  0.00000000E+00  0.00000000E+00
  0.00000000E+00  0.00000000E+00  0.00000000E+00
  0.00000000E+00  0.00000000E+00  0.00000000E+00
  0.00000000E+00  0.00000000E+00  0.00000000E+00
  0.00000000E+00  0.00000000E+00  0.00000000E+00
