Poscar file generated with pyiron       
   1.00000000000000     
     4.7746031042560038   -0.0059897714847848    0.3092062902169130
     0.0024174426586063   10.4754914748751595    0.2210526966266559
    -1.1552373441615935   -0.3773337860844718   17.7655637048291943
   Cs   I    Pb
     4    12     4
Direct
  0.6186596276155419  0.0021155037790996  0.3403413565720644
  0.1185489375439273  0.8412740222298456  0.6841073116484252
  0.6222897408024956  0.5038162760379733  0.1839998291366982
  0.1214201541262803  0.3422084134727616  0.8405623311030362
  0.6264795201729778  0.2621546924542214  0.0108439485355820
  0.1243835795918169  0.5846808741773766  0.0138181425663307
  0.6170726430767070  0.7603701943083452  0.5144063278816099
  0.1179968500561338  0.0828493856703883  0.5102714330528217
  0.1237072243349017  0.9579921032673195  0.8992050447995671
  0.6274411832344791  0.8885176529247215  0.1252827777162660
  0.1178041393300873  0.4558815970427219  0.6254871870898565
  0.6175949488420008  0.3874002078346921  0.3992626293616122
  0.1221370768973426  0.2208804605742091  0.2276018384921866
  0.6197916329865176  0.6246498119719438  0.7972004184953490
  0.1207081927898315  0.7200235145691289  0.2975501342203928
  0.6195584759339008  0.1238996182518759  0.7274276784800452
  0.1277421363916497  0.0831113030768248  0.0735502880322697
  0.6241419682201078  0.7636703416018156  0.9510489675960824
  0.1168677660639455  0.5813906666540569  0.4515604179539749
  0.6180536381253736  0.2615062542733914  0.5732750331308480
 
  0.00000000E+00  0.00000000E+00  0.00000000E+00
  0.00000000E+00  0.00000000E+00  0.00000000E+00
  0.00000000E+00  0.00000000E+00  0.00000000E+00
  0.00000000E+00  0.00000000E+00  0.00000000E+00
  0.00000000E+00  0.00000000E+00  0.00000000E+00
  0.00000000E+00  0.00000000E+00  0.00000000E+00
  0.00000000E+00  0.00000000E+00  0.00000000E+00
  0.00000000E+00  0.00000000E+00  0.00000000E+00
  0.00000000E+00  0.00000000E+00  0.00000000E+00
  0.00000000E+00  0.00000000E+00  0.00000000E+00
  0.00000000E+00  0.00000000E+00  0.00000000E+00
  0.00000000E+00  0.00000000E+00  0.00000000E+00
  0.00000000E+00  0.00000000E+00  0.00000000E+00
  0.00000000E+00  0.00000000E+00  0.00000000E+00
  0.00000000E+00  0.00000000E+00  0.00000000E+00
  0.00000000E+00  0.00000000E+00  0.00000000E+00
  0.00000000E+00  0.00000000E+00  0.00000000E+00
  0.00000000E+00  0.00000000E+00  0.00000000E+00
  0.00000000E+00  0.00000000E+00  0.00000000E+00
  0.00000000E+00  0.00000000E+00  0.00000000E+00
