Poscar file generated with pyiron       
   1.00000000000000     
     4.7839689999999999   -0.0063410000000000    0.1479200000000000
     0.0046770000000000   10.4749649999999992    0.1256910000000000
    -0.5527900000000000   -0.2194880000000000   17.7991109999999999
   Cs   I    Pb
     4    12     4
Direct
  0.7335575958239886  0.1027674331888235  0.3356520597552759
  0.2369125521163653  0.9383806515365478  0.6795384383637497
  0.7326478727945229  0.6035721730998347  0.1796613336057717
  0.2354895749847188  0.4388504216115479  0.8356807645720679
  0.7329672598934494  0.3611831940395049  0.0060701699192265
  0.2329375385555466  0.6830326030087193  0.0094602215524233
  0.7362686102155394  0.8591099024175790  0.5094651213192307
  0.2363694078633500  0.1810809523285144  0.5060888267577326
  0.2332424065671219  0.0560651964530123  0.8946465677351085
  0.7324727010639904  0.9879972582565486  0.1207032504985222
  0.2369669886662038  0.5544870166716436  0.6206567083184211
  0.7357486794510919  0.4862206980973340  0.3946484997478308
  0.2330282449061372  0.3207416283560747  0.2224967586968560
  0.7363679129848535  0.7219951564010714  0.7931696394561101
  0.2330410326541994  0.8202027377119663  0.2931873385953452
  0.7366131752162985  0.2214124970085294  0.7224085495535917
  0.2326128154267195  0.1822966132921096  0.0686737251434337
  0.7332255922115962  0.8617264214191422  0.9467287030886027
  0.2362544109044791  0.6804990619819904  0.4467315131794081
  0.7371609872683180  0.3600880728012115  0.5686173148705365
 
  0.00000000E+00  0.00000000E+00  0.00000000E+00
  0.00000000E+00  0.00000000E+00  0.00000000E+00
  0.00000000E+00  0.00000000E+00  0.00000000E+00
  0.00000000E+00  0.00000000E+00  0.00000000E+00
  0.00000000E+00  0.00000000E+00  0.00000000E+00
  0.00000000E+00  0.00000000E+00  0.00000000E+00
  0.00000000E+00  0.00000000E+00  0.00000000E+00
  0.00000000E+00  0.00000000E+00  0.00000000E+00
  0.00000000E+00  0.00000000E+00  0.00000000E+00
  0.00000000E+00  0.00000000E+00  0.00000000E+00
  0.00000000E+00  0.00000000E+00  0.00000000E+00
  0.00000000E+00  0.00000000E+00  0.00000000E+00
  0.00000000E+00  0.00000000E+00  0.00000000E+00
  0.00000000E+00  0.00000000E+00  0.00000000E+00
  0.00000000E+00  0.00000000E+00  0.00000000E+00
  0.00000000E+00  0.00000000E+00  0.00000000E+00
  0.00000000E+00  0.00000000E+00  0.00000000E+00
  0.00000000E+00  0.00000000E+00  0.00000000E+00
  0.00000000E+00  0.00000000E+00  0.00000000E+00
  0.00000000E+00  0.00000000E+00  0.00000000E+00
