Poscar file generated with pyiron       
   1.00000000000000     
     4.7776815813740647    0.0532096326077965    0.2375830411784269
    -0.1331027845554446   10.4715619770309925    0.3528388625732721
    -0.8806783419981745   -0.6129630795589401   17.7794483764801221
   Cs   I    Pb
     4    12     4
Direct
  0.6415917927146801  0.0023082651064813  0.3452193976298094
  0.1417733860027216  0.8415438793067906  0.6885247993024576
  0.6445900127088326  0.5026875910852273  0.1887374173802038
  0.1440664005106336  0.3422378732222136  0.8452890318716089
  0.6470417752176104  0.2616095478720586  0.0151904172619267
  0.1474696955092466  0.5839992753433241  0.0186578090917377
  0.6360031431211514  0.7602568232424088  0.5185038173016088
  0.1365903938557506  0.0827822236549898  0.5157414508737677
  0.1474376480494108  0.9570939039373950  0.9037305680704603
  0.6473750501698019  0.8882221129888547  0.1299363946599180
  0.1364696463325910  0.4566075071256448  0.6301251475860810
  0.6354814339752685  0.3866128526594919  0.4040860712582969
  0.1437203524584552  0.2200946109559969  0.2319419203999274
  0.6436821221146601  0.6245290145423961  0.8019223755490980
  0.1421529911183269  0.7195833201502383  0.3020091024290558
  0.6422579759526292  0.1242590721640032  0.7323901429286017
  0.1472528207629023  0.0825284252305483  0.0778219812035355
  0.6475902973227018  0.7628747398524907  0.9558228364545753
  0.1354674986678463  0.5810861395807626  0.4558605019502195
  0.6363656591806263  0.2619004989998440  0.5783696617619558
 
  0.00000000E+00  0.00000000E+00  0.00000000E+00
  0.00000000E+00  0.00000000E+00  0.00000000E+00
  0.00000000E+00  0.00000000E+00  0.00000000E+00
  0.00000000E+00  0.00000000E+00  0.00000000E+00
  0.00000000E+00  0.00000000E+00  0.00000000E+00
  0.00000000E+00  0.00000000E+00  0.00000000E+00
  0.00000000E+00  0.00000000E+00  0.00000000E+00
  0.00000000E+00  0.00000000E+00  0.00000000E+00
  0.00000000E+00  0.00000000E+00  0.00000000E+00
  0.00000000E+00  0.00000000E+00  0.00000000E+00
  0.00000000E+00  0.00000000E+00  0.00000000E+00
  0.00000000E+00  0.00000000E+00  0.00000000E+00
  0.00000000E+00  0.00000000E+00  0.00000000E+00
  0.00000000E+00  0.00000000E+00  0.00000000E+00
  0.00000000E+00  0.00000000E+00  0.00000000E+00
  0.00000000E+00  0.00000000E+00  0.00000000E+00
  0.00000000E+00  0.00000000E+00  0.00000000E+00
  0.00000000E+00  0.00000000E+00  0.00000000E+00
  0.00000000E+00  0.00000000E+00  0.00000000E+00
  0.00000000E+00  0.00000000E+00  0.00000000E+00
