Poscar file generated with pyiron       
   1.00000000000000     
     4.7805528211447790    0.0435824195626205    0.2307723371998371
    -0.1008982120034944   10.4696204968426425    0.1903123120841255
    -0.8575879717770668   -0.3186058412504826   17.7961209945356558
   Cs   I    Pb
     4    12     4
Direct
  0.6104255887854577  0.0149074237843249  0.3449226008391366
  0.1090297438184789  0.8513485240692569  0.6883152529256721
  0.6121699337607041  0.5151191222105743  0.1882160589839984
  0.1105567706095843  0.3517498325673180  0.8447871778668011
  0.6138667468377560  0.2723366707666502  0.0149254483090905
  0.1137417839141036  0.5946009777561195  0.0179948128887199
  0.6070043877493745  0.7712270274521165  0.5182548673813309
  0.1069849633544482  0.0934213776537818  0.5152324467741812
  0.1136507883590915  0.9680210823385818  0.9033042252326442
  0.6139731645176969  0.8988602071753501  0.1295448938476688
  0.1063565511824076  0.4670384101834542  0.6296142813996136
  0.6072678046089374  0.3979975711052037  0.4034490336082951
  0.1118949731572999  0.2319550154318394  0.2311936750618539
  0.6103108878764809  0.6345703756254143  0.8017319511602367
  0.1109501448626648  0.7319702077136588  0.3019555548888697
  0.6095049725491839  0.1343687391308910  0.7315209670143837
  0.1142123988617390  0.0932688173020207  0.0775510570634796
  0.6139256674744050  0.7736273624367793  0.9553375922589219
  0.1068461144001123  0.5924665219100950  0.4554589928094009
  0.6062762566666092  0.2726448065683112  0.5777066053084539
 
  0.00000000E+00  0.00000000E+00  0.00000000E+00
  0.00000000E+00  0.00000000E+00  0.00000000E+00
  0.00000000E+00  0.00000000E+00  0.00000000E+00
  0.00000000E+00  0.00000000E+00  0.00000000E+00
  0.00000000E+00  0.00000000E+00  0.00000000E+00
  0.00000000E+00  0.00000000E+00  0.00000000E+00
  0.00000000E+00  0.00000000E+00  0.00000000E+00
  0.00000000E+00  0.00000000E+00  0.00000000E+00
  0.00000000E+00  0.00000000E+00  0.00000000E+00
  0.00000000E+00  0.00000000E+00  0.00000000E+00
  0.00000000E+00  0.00000000E+00  0.00000000E+00
  0.00000000E+00  0.00000000E+00  0.00000000E+00
  0.00000000E+00  0.00000000E+00  0.00000000E+00
  0.00000000E+00  0.00000000E+00  0.00000000E+00
  0.00000000E+00  0.00000000E+00  0.00000000E+00
  0.00000000E+00  0.00000000E+00  0.00000000E+00
  0.00000000E+00  0.00000000E+00  0.00000000E+00
  0.00000000E+00  0.00000000E+00  0.00000000E+00
  0.00000000E+00  0.00000000E+00  0.00000000E+00
  0.00000000E+00  0.00000000E+00  0.00000000E+00
