Poscar file generated with pyiron       
   1.00000000000000     
     4.7775648183016362    0.0176052832862924    0.2996736062045061
    -0.0502193779527540   10.4683569891726229    0.2483127908332149
    -1.1143967088075928   -0.4293047005844130   17.7711698083825702
   Cs   I    Pb
     4    12     4
Direct
  0.6263690847842314  0.0002216631723936  0.3424441311291285
  0.1256029634214586  0.8372788402988790  0.6861053245508185
  0.6293069918643518  0.5007871838757944  0.1858425873267616
  0.1281126177334062  0.3372980787161983  0.8424399207986273
  0.6321633698276155  0.2580925537477717  0.0126645633269285
  0.1313773035133917  0.5802555037255404  0.0156215427210405
  0.6241572873004755  0.7576129460234927  0.5161893369236747
  0.1242182369377327  0.0798378145298574  0.5124414396200097
  0.1312720941584840  0.9536798435553910  0.9011762379565760
  0.6325523223473610  0.8847787152618757  0.1273116096404649
  0.1239242367095308  0.4528368856145020  0.6274720596564495
  0.6244175675638777  0.3845259392253227  0.4012743551980657
  0.1285487018571143  0.2179743179767901  0.2291689361403110
  0.6272408639480225  0.6202699845084142  0.7993453457985480
  0.1273106407263867  0.7173859019573383  0.2996257963828415
  0.6266032477307107  0.1200131629701687  0.7291032757082599
  0.1328621854720896  0.0792522016755683  0.0754200223190906
  0.6313633092077998  0.7592309876775740  0.9530314997998538
  0.1239425009381586  0.5786708038763150  0.4534488817188281
  0.6238204061788947  0.2586125877497320  0.5752954704545857
 
  0.00000000E+00  0.00000000E+00  0.00000000E+00
  0.00000000E+00  0.00000000E+00  0.00000000E+00
  0.00000000E+00  0.00000000E+00  0.00000000E+00
  0.00000000E+00  0.00000000E+00  0.00000000E+00
  0.00000000E+00  0.00000000E+00  0.00000000E+00
  0.00000000E+00  0.00000000E+00  0.00000000E+00
  0.00000000E+00  0.00000000E+00  0.00000000E+00
  0.00000000E+00  0.00000000E+00  0.00000000E+00
  0.00000000E+00  0.00000000E+00  0.00000000E+00
  0.00000000E+00  0.00000000E+00  0.00000000E+00
  0.00000000E+00  0.00000000E+00  0.00000000E+00
  0.00000000E+00  0.00000000E+00  0.00000000E+00
  0.00000000E+00  0.00000000E+00  0.00000000E+00
  0.00000000E+00  0.00000000E+00  0.00000000E+00
  0.00000000E+00  0.00000000E+00  0.00000000E+00
  0.00000000E+00  0.00000000E+00  0.00000000E+00
  0.00000000E+00  0.00000000E+00  0.00000000E+00
  0.00000000E+00  0.00000000E+00  0.00000000E+00
  0.00000000E+00  0.00000000E+00  0.00000000E+00
  0.00000000E+00  0.00000000E+00  0.00000000E+00
