Poscar file generated with pyiron       
   1.00000000000000     
     4.7802730000000002    0.0646740000000000   -0.1989930000000000
    -0.1390090000000000   10.4698150000000005    0.2037330000000000
     0.7435940000000000   -0.3319450000000000   17.7961039999999997
   Cs   I    Pb
     4    12     4
Direct
  0.6703463351800849  0.0300323790250303  0.3494870149573046
  0.1704760919725175  0.8683577202604269  0.6928896568862086
  0.6674470012837332  0.5309440240865655  0.1927236297073947
  0.1680618161969534  0.3688576752858381  0.8495185021487046
  0.6636262223367666  0.2893917505142483  0.0197995830590543
  0.1637546736518019  0.6117950839635782  0.0225784420115005
  0.6724797426766997  0.7873181150825204  0.5228832256775036
  0.1718868843174235  0.1094967341332520  0.5196629561646589
  0.1639461526655737  0.9854536428492153  0.9081227048874112
  0.6630215154212422  0.9155619907853634  0.1342766854907183
  0.1720746625859988  0.4831014383085019  0.6343090214983604
  0.6722232343949770  0.4139635409071047  0.4080826203417800
  0.1684252415044440  0.2480942847639938  0.2364344554907802
  0.6688363458047633  0.6517390846077689  0.8062083363543096
  0.1693860688506419  0.7471956499459722  0.3063697695184970
  0.6695454384611850  0.1511172893748309  0.7363673423348658
  0.1628154616184005  0.1102464445726952  0.0825817175976624
  0.6634561165286073  0.7908938749424053  0.9598367342918408
  0.1727110566168193  0.6082964534816000  0.4601599506091461
  0.6720583603336863  0.2886413557280889  0.5822844512297678
 
  0.00000000E+00  0.00000000E+00  0.00000000E+00
  0.00000000E+00  0.00000000E+00  0.00000000E+00
  0.00000000E+00  0.00000000E+00  0.00000000E+00
  0.00000000E+00  0.00000000E+00  0.00000000E+00
  0.00000000E+00  0.00000000E+00  0.00000000E+00
  0.00000000E+00  0.00000000E+00  0.00000000E+00
  0.00000000E+00  0.00000000E+00  0.00000000E+00
  0.00000000E+00  0.00000000E+00  0.00000000E+00
  0.00000000E+00  0.00000000E+00  0.00000000E+00
  0.00000000E+00  0.00000000E+00  0.00000000E+00
  0.00000000E+00  0.00000000E+00  0.00000000E+00
  0.00000000E+00  0.00000000E+00  0.00000000E+00
  0.00000000E+00  0.00000000E+00  0.00000000E+00
  0.00000000E+00  0.00000000E+00  0.00000000E+00
  0.00000000E+00  0.00000000E+00  0.00000000E+00
  0.00000000E+00  0.00000000E+00  0.00000000E+00
  0.00000000E+00  0.00000000E+00  0.00000000E+00
  0.00000000E+00  0.00000000E+00  0.00000000E+00
  0.00000000E+00  0.00000000E+00  0.00000000E+00
  0.00000000E+00  0.00000000E+00  0.00000000E+00
