Poscar file generated with pyiron       
   1.00000000000000     
     4.7857747257607270    0.0773967233510004    0.1052293169101246
    -0.1788669610199098   10.4631379971754406    0.3184926833209757
    -0.3791355058485278   -0.5600723283660194   17.8038287938489894
   Cs   I    Pb
     4    12     4
Direct
  0.6595017225740708  0.0455083801237883  0.3668801736485891
  0.1597680467237228  0.8814410823487711  0.7105263436055926
  0.6567428714445888  0.5444749942247080  0.2103642200211903
  0.1575678111162775  0.3800611764586418  0.8668510009305928
  0.6551158421845250  0.2996264394029318  0.0370340501296773
  0.1548922699549411  0.6215010761026240  0.0400904138639046
  0.6620011535716274  0.8037531451194179  0.5401491526331051
  0.1618314755185259  0.1253367446935475  0.5371341121718473
  0.1549509867421889  0.9951941926655681  0.9258603775246815
  0.6550165930133850  0.9265862362897952  0.1516462045773401
  0.1617426010275419  0.4986401494305521  0.6516158911012133
  0.6621685397836657  0.4299062285175740  0.4258585790277525
  0.1578997593411267  0.2615195491442928  0.2532543223495936
  0.6580651850078268  0.6627626822822003  0.8234444390871123
  0.1586156783436727  0.7623393139893525  0.3237538768749292
  0.6592928259619567  0.1641768895552546  0.7531750387467463
  0.1549092732969536  0.1212149482402775  0.0999374463138569
  0.6547549135009817  0.8006769249629043  0.9775430659732141
  0.1622172723689726  0.6245580400483870  0.4776422362108247
  0.6619986289634162  0.3040790741739157  0.5997480264033591
 
  0.00000000E+00  0.00000000E+00  0.00000000E+00
  0.00000000E+00  0.00000000E+00  0.00000000E+00
  0.00000000E+00  0.00000000E+00  0.00000000E+00
  0.00000000E+00  0.00000000E+00  0.00000000E+00
  0.00000000E+00  0.00000000E+00  0.00000000E+00
  0.00000000E+00  0.00000000E+00  0.00000000E+00
  0.00000000E+00  0.00000000E+00  0.00000000E+00
  0.00000000E+00  0.00000000E+00  0.00000000E+00
  0.00000000E+00  0.00000000E+00  0.00000000E+00
  0.00000000E+00  0.00000000E+00  0.00000000E+00
  0.00000000E+00  0.00000000E+00  0.00000000E+00
  0.00000000E+00  0.00000000E+00  0.00000000E+00
  0.00000000E+00  0.00000000E+00  0.00000000E+00
  0.00000000E+00  0.00000000E+00  0.00000000E+00
  0.00000000E+00  0.00000000E+00  0.00000000E+00
  0.00000000E+00  0.00000000E+00  0.00000000E+00
  0.00000000E+00  0.00000000E+00  0.00000000E+00
  0.00000000E+00  0.00000000E+00  0.00000000E+00
  0.00000000E+00  0.00000000E+00  0.00000000E+00
  0.00000000E+00  0.00000000E+00  0.00000000E+00
