Poscar file generated with pyiron       
   1.00000000000000     
     4.7823774541203496    0.0670786972244493   -0.1796812189788379
    -0.1381292297347038   10.4712066083917410    0.1991662657431956
     0.6780121138036235   -0.3287018705178134   17.7962190352081961
   Cs   I    Pb
     4    12     4
Direct
  0.6738027012514743  0.0282745226667936  0.3465996071526480
  0.1738756934759760  0.8656870456318765  0.6898602634877761
  0.6716834556894787  0.5293077307930971  0.1898873976255687
  0.1714730326975576  0.3666970545801196  0.8465777251636335
  0.6683687230953701  0.2874775381042406  0.0167573382211435
  0.1684307411308173  0.6096314813763057  0.0197695199711070
  0.6761645838276636  0.7849989564297456  0.5201447289649835
  0.1765501671518614  0.1071937214497954  0.5167301350037813
  0.1684750749731706  0.9831558253692723  0.9052214021421315
  0.6681195857927071  0.9138060551874161  0.1313120193444430
  0.1759118341644828  0.4806917892607532  0.6313718945467691
  0.6764024408961458  0.4118989503907092  0.4051572477712561
  0.1723839327157456  0.2464118793142666  0.2335157327615888
  0.6722538341204108  0.6493647453462752  0.8033731548890954
  0.1733278637132073  0.7453502781871537  0.3036166475057129
  0.6729720972904937  0.1485610805372230  0.7334822830054691
  0.1681352089631785  0.1084795044634921  0.0795440947311171
  0.6683379998388012  0.7886885369826232  0.9570556284853079
  0.1761637329507341  0.6060763381321460  0.4573367010968986
  0.6761010731021592  0.2862385321464093  0.5794390914510209
 
  0.00000000E+00  0.00000000E+00  0.00000000E+00
  0.00000000E+00  0.00000000E+00  0.00000000E+00
  0.00000000E+00  0.00000000E+00  0.00000000E+00
  0.00000000E+00  0.00000000E+00  0.00000000E+00
  0.00000000E+00  0.00000000E+00  0.00000000E+00
  0.00000000E+00  0.00000000E+00  0.00000000E+00
  0.00000000E+00  0.00000000E+00  0.00000000E+00
  0.00000000E+00  0.00000000E+00  0.00000000E+00
  0.00000000E+00  0.00000000E+00  0.00000000E+00
  0.00000000E+00  0.00000000E+00  0.00000000E+00
  0.00000000E+00  0.00000000E+00  0.00000000E+00
  0.00000000E+00  0.00000000E+00  0.00000000E+00
  0.00000000E+00  0.00000000E+00  0.00000000E+00
  0.00000000E+00  0.00000000E+00  0.00000000E+00
  0.00000000E+00  0.00000000E+00  0.00000000E+00
  0.00000000E+00  0.00000000E+00  0.00000000E+00
  0.00000000E+00  0.00000000E+00  0.00000000E+00
  0.00000000E+00  0.00000000E+00  0.00000000E+00
  0.00000000E+00  0.00000000E+00  0.00000000E+00
  0.00000000E+00  0.00000000E+00  0.00000000E+00
