Poscar file generated with pyiron       
   1.00000000000000     
     4.7812572650117504    0.0859880124597713    0.2011784697319119
    -0.1987802525666666   10.4619395500302694    0.2909935726663345
    -0.7370561743869670   -0.5023017957373284   17.7934802499115108
   Cs   I    Pb
     4    12     4
Direct
  0.6917164375478136  0.9899170012409715  0.3385962981164075
  0.1860113887295194  0.8271963543408328  0.6820634092304348
  0.6931188018281228  0.4912687781367022  0.1821153957903179
  0.1887371850873234  0.3286415624059812  0.8388212025483103
  0.6931885081520704  0.2494215135818005  0.0090607536355763
  0.1923840062809509  0.5717469968062224  0.0120972924212792
  0.6854844716033135  0.7462302062020874  0.5125421313567443
  0.1859177554655094  0.0684980371846387  0.5088332529668413
  0.1925996948382935  0.9452180859564915  0.8974190462355048
  0.6928858636140357  0.8755118513566041  0.1235879456412146
  0.1854387792911720  0.4420988480748333  0.6236347097330849
  0.6856701460149037  0.3732388618134289  0.3975206789861989
  0.1924367975876095  0.2084445739718989  0.2254642229603613
  0.6876396446535972  0.6114055469638935  0.7957457218348467
  0.1912450673051340  0.7073111775353305  0.2959250666594282
  0.6870866483236134  0.1099509847426049  0.7258050165878913
  0.1939227030590508  0.0704861916076471  0.0716095291568480
  0.6927560538454968  0.7506998537936345  0.9493445532800349
  0.1851536082136193  0.5674657398825493  0.4496114089147323
  0.6849680873235283  0.2476416831411985  0.5716543115334589
 
  0.00000000E+00  0.00000000E+00  0.00000000E+00
  0.00000000E+00  0.00000000E+00  0.00000000E+00
  0.00000000E+00  0.00000000E+00  0.00000000E+00
  0.00000000E+00  0.00000000E+00  0.00000000E+00
  0.00000000E+00  0.00000000E+00  0.00000000E+00
  0.00000000E+00  0.00000000E+00  0.00000000E+00
  0.00000000E+00  0.00000000E+00  0.00000000E+00
  0.00000000E+00  0.00000000E+00  0.00000000E+00
  0.00000000E+00  0.00000000E+00  0.00000000E+00
  0.00000000E+00  0.00000000E+00  0.00000000E+00
  0.00000000E+00  0.00000000E+00  0.00000000E+00
  0.00000000E+00  0.00000000E+00  0.00000000E+00
  0.00000000E+00  0.00000000E+00  0.00000000E+00
  0.00000000E+00  0.00000000E+00  0.00000000E+00
  0.00000000E+00  0.00000000E+00  0.00000000E+00
  0.00000000E+00  0.00000000E+00  0.00000000E+00
  0.00000000E+00  0.00000000E+00  0.00000000E+00
  0.00000000E+00  0.00000000E+00  0.00000000E+00
  0.00000000E+00  0.00000000E+00  0.00000000E+00
  0.00000000E+00  0.00000000E+00  0.00000000E+00
