Poscar file generated with pyiron       
   1.00000000000000     
     4.7840153842158690    0.1040267895900457    0.1271563143052456
    -0.2348127097771084   10.4654493453915691    0.2608775758612378
    -0.4656474056773550   -0.4591038136330202   17.8009474267895023
   Cs   I    Pb
     4    12     4
Direct
  0.6887091640465488  0.9745852579595401  0.3411411964647697
  0.1898002905124331  0.8109931660768939  0.6845748812604574
  0.6897953428196005  0.4759493432511644  0.1845040214758827
  0.1907695226201147  0.3122154531238890  0.8411671819050307
  0.6918951052755904  0.2340061188923180  0.0113207361726375
  0.1915156271515755  0.5562010697656203  0.0145394702237615
  0.6881602882293937  0.7304559285614453  0.5144739009956443
  0.1878636042012533  0.0526815785510809  0.5113601695689390
  0.1922024558048205  0.9293654892689790  0.8997679433533039
  0.6913625700444626  0.8604599612957684  0.1259882178281045
  0.1881462692021216  0.4261798023881408  0.6259939504362017
  0.6878611073074188  0.3573122243808455  0.3997921469242020
  0.1892527634627903  0.1928877227768057  0.2279021263571436
  0.6905652011486185  0.5950157230715467  0.7983846402407849
  0.1889927144696920  0.6916895556466934  0.2982915073329904
  0.6898134505025795  0.0938400116899216  0.7280123899908287
  0.1915014525600583  0.0549528011330202  0.0740417150219171
  0.6916372954673642  0.7350357215692525  0.9518181296202327
  0.1879340966018418  0.5515875913437055  0.4518079504682961
  0.6881992834233155  0.2317803285579220  0.5740135530623870
 
  0.00000000E+00  0.00000000E+00  0.00000000E+00
  0.00000000E+00  0.00000000E+00  0.00000000E+00
  0.00000000E+00  0.00000000E+00  0.00000000E+00
  0.00000000E+00  0.00000000E+00  0.00000000E+00
  0.00000000E+00  0.00000000E+00  0.00000000E+00
  0.00000000E+00  0.00000000E+00  0.00000000E+00
  0.00000000E+00  0.00000000E+00  0.00000000E+00
  0.00000000E+00  0.00000000E+00  0.00000000E+00
  0.00000000E+00  0.00000000E+00  0.00000000E+00
  0.00000000E+00  0.00000000E+00  0.00000000E+00
  0.00000000E+00  0.00000000E+00  0.00000000E+00
  0.00000000E+00  0.00000000E+00  0.00000000E+00
  0.00000000E+00  0.00000000E+00  0.00000000E+00
  0.00000000E+00  0.00000000E+00  0.00000000E+00
  0.00000000E+00  0.00000000E+00  0.00000000E+00
  0.00000000E+00  0.00000000E+00  0.00000000E+00
  0.00000000E+00  0.00000000E+00  0.00000000E+00
  0.00000000E+00  0.00000000E+00  0.00000000E+00
  0.00000000E+00  0.00000000E+00  0.00000000E+00
  0.00000000E+00  0.00000000E+00  0.00000000E+00
