Poscar file generated with pyiron       
   1.00000000000000     
     4.7855626844944350   -0.0080678859762716    0.1068975099872075
     0.0139828824383351   10.4631457374492101    0.2764965600003136
    -0.4020147938439212   -0.4679387097594229   17.7958228340024469
   Cs   I    Pb
     4    12     4
Direct
  0.7019768700866712  0.0773502128732242  0.3533375015734968
  0.2002954402212058  0.9119600038636536  0.6971813891443451
  0.7023946883435546  0.5794277127149764  0.1972455271684661
  0.2009248181572428  0.4143507887427405  0.8532868043152142
  0.7021853471237470  0.3384627550344436  0.0237617119546531
  0.2023029147988969  0.6599728669831055  0.0273393868387675
  0.7004734043022874  0.8322085071288567  0.5271144079551264
  0.2008076367554356  0.1534933142874377  0.5235925656327751
  0.2017873431049487  0.0326766308873184  0.9123125949477713
  0.7026257284040550  0.9648113952153214  0.1384193398535419
  0.2006191985097675  0.5270443647303128  0.6382445209549097
  0.7006621398932911  0.4594091389951879  0.4122580536863777
  0.2024088261869479  0.2965369717234643  0.2403981281150923
  0.7006901374675697  0.6972778134778094  0.8113167252397940
  0.2022516646330728  0.7944920126983882  0.3110536410827906
  0.7004286233548178  0.1950358711679117  0.7402366683683057
  0.2026265701726612  0.1593286099133120  0.0863502556697747
  0.7022141253035570  0.8384545181631632  0.9645460587107093
  0.2003482717716139  0.6536622565410377  0.4643468158124994
  0.7007335201248617  0.3324661132974525  0.5862361945411231
 
  0.00000000E+00  0.00000000E+00  0.00000000E+00
  0.00000000E+00  0.00000000E+00  0.00000000E+00
  0.00000000E+00  0.00000000E+00  0.00000000E+00
  0.00000000E+00  0.00000000E+00  0.00000000E+00
  0.00000000E+00  0.00000000E+00  0.00000000E+00
  0.00000000E+00  0.00000000E+00  0.00000000E+00
  0.00000000E+00  0.00000000E+00  0.00000000E+00
  0.00000000E+00  0.00000000E+00  0.00000000E+00
  0.00000000E+00  0.00000000E+00  0.00000000E+00
  0.00000000E+00  0.00000000E+00  0.00000000E+00
  0.00000000E+00  0.00000000E+00  0.00000000E+00
  0.00000000E+00  0.00000000E+00  0.00000000E+00
  0.00000000E+00  0.00000000E+00  0.00000000E+00
  0.00000000E+00  0.00000000E+00  0.00000000E+00
  0.00000000E+00  0.00000000E+00  0.00000000E+00
  0.00000000E+00  0.00000000E+00  0.00000000E+00
  0.00000000E+00  0.00000000E+00  0.00000000E+00
  0.00000000E+00  0.00000000E+00  0.00000000E+00
  0.00000000E+00  0.00000000E+00  0.00000000E+00
  0.00000000E+00  0.00000000E+00  0.00000000E+00
