Poscar file generated with pyiron       
   1.00000000000000     
     4.7869799602483836   -0.0368573848530556    0.0587512942409991
     0.0711697252937278   10.4583071155928859    0.4231302082138684
    -0.2227521987825150   -0.7272908041002024   17.7924913419209112
   Cs   I    Pb
     4    12     4
Direct
  0.6871570927075648  0.0097870541267214  0.3432189244231674
  0.1915221680271481  0.8459632101551477  0.6871185998777827
  0.6871908771619112  0.5109394728681390  0.1868208341135688
  0.1917400566041251  0.3462633853681175  0.8433588356676223
  0.6893523662263997  0.2677116161769892  0.0137051497740926
  0.1890047800652163  0.5901367608491951  0.0163750329962239
  0.6886909955933691  0.7659754119933370  0.5174800676475553
  0.1883879720247529  0.0874896172160070  0.5133803737166316
  0.1895286251442065  0.9632636974002462  0.9020557048912490
  0.6887268587523961  0.8943328330565664  0.1280258788574702
  0.1887606026461297  0.4605462441623986  0.6282621234836732
  0.6881902774801191  0.3933821232612825  0.4023039618232555
  0.1872453525579450  0.2277808434202162  0.2299561883033574
  0.6915595861611286  0.6291999318176336  0.8002295496799600
  0.1871766702717237  0.7269713163870509  0.3010614942693051
  0.6914473421613594  0.1287005858967042  0.7300410798638366
  0.1889156928401909  0.0888835072622789  0.0762884483745323
  0.6893359625306660  0.7688351148841607  0.9537556524265942
  0.1881936438544145  0.5874285646967371  0.4546297350286264
  0.6885287099926071  0.2664071633334509  0.5760842908626356
 
  0.00000000E+00  0.00000000E+00  0.00000000E+00
  0.00000000E+00  0.00000000E+00  0.00000000E+00
  0.00000000E+00  0.00000000E+00  0.00000000E+00
  0.00000000E+00  0.00000000E+00  0.00000000E+00
  0.00000000E+00  0.00000000E+00  0.00000000E+00
  0.00000000E+00  0.00000000E+00  0.00000000E+00
  0.00000000E+00  0.00000000E+00  0.00000000E+00
  0.00000000E+00  0.00000000E+00  0.00000000E+00
  0.00000000E+00  0.00000000E+00  0.00000000E+00
  0.00000000E+00  0.00000000E+00  0.00000000E+00
  0.00000000E+00  0.00000000E+00  0.00000000E+00
  0.00000000E+00  0.00000000E+00  0.00000000E+00
  0.00000000E+00  0.00000000E+00  0.00000000E+00
  0.00000000E+00  0.00000000E+00  0.00000000E+00
  0.00000000E+00  0.00000000E+00  0.00000000E+00
  0.00000000E+00  0.00000000E+00  0.00000000E+00
  0.00000000E+00  0.00000000E+00  0.00000000E+00
  0.00000000E+00  0.00000000E+00  0.00000000E+00
  0.00000000E+00  0.00000000E+00  0.00000000E+00
  0.00000000E+00  0.00000000E+00  0.00000000E+00
