Poscar file generated with pyiron       
   1.00000000000000     
     4.7844189999999998   -0.0699690000000000   -0.0649400000000000
     0.1574410000000000   10.4670319999999997    0.2695070000000000
     0.2302050000000000   -0.4574950000000000   17.8080730000000003
   Cs   I    Pb
     4    12     4
Direct
  0.6733362453827993  0.0082643054283622  0.3396427894595178
  0.1747003152819389  0.8446293759897969  0.6835247986175190
  0.6721346720507597  0.5090967252027667  0.1838235842802476
  0.1725323181149676  0.3453251160854975  0.8399987238590896
  0.6686908624791243  0.2665029330639399  0.0106499790071766
  0.1693385360212929  0.5884235700677181  0.0132226377971563
  0.6755332412494681  0.7649523315542694  0.5136135880503687
  0.1745445597475879  0.0861358599738367  0.5099106999940020
  0.1689882420504958  0.9622717204038835  0.8987971554017520
  0.6685057427101881  0.8924643489529700  0.1248580798737535
  0.1747156813724473  0.4591699188505061  0.6251359541428698
  0.6753708796407594  0.3912323627061483  0.3991133039040591
  0.1718629443336113  0.2261583503446474  0.2268956306422183
  0.6734917859130647  0.6281090609718660  0.7969212874812612
  0.1733613780498757  0.7252296065600490  0.2974952134912243
  0.6734730824623085  0.1271450848547104  0.7270010646126082
  0.1683818248250049  0.0873248075378044  0.0731434938511839
  0.6688579645829194  0.7675295034541634  0.9505384844772422
  0.1756215810071424  0.5858177025572999  0.4511509439454571
  0.6744863699936161  0.2648862489914734  0.5729120140985628
 
  0.00000000E+00  0.00000000E+00  0.00000000E+00
  0.00000000E+00  0.00000000E+00  0.00000000E+00
  0.00000000E+00  0.00000000E+00  0.00000000E+00
  0.00000000E+00  0.00000000E+00  0.00000000E+00
  0.00000000E+00  0.00000000E+00  0.00000000E+00
  0.00000000E+00  0.00000000E+00  0.00000000E+00
  0.00000000E+00  0.00000000E+00  0.00000000E+00
  0.00000000E+00  0.00000000E+00  0.00000000E+00
  0.00000000E+00  0.00000000E+00  0.00000000E+00
  0.00000000E+00  0.00000000E+00  0.00000000E+00
  0.00000000E+00  0.00000000E+00  0.00000000E+00
  0.00000000E+00  0.00000000E+00  0.00000000E+00
  0.00000000E+00  0.00000000E+00  0.00000000E+00
  0.00000000E+00  0.00000000E+00  0.00000000E+00
  0.00000000E+00  0.00000000E+00  0.00000000E+00
  0.00000000E+00  0.00000000E+00  0.00000000E+00
  0.00000000E+00  0.00000000E+00  0.00000000E+00
  0.00000000E+00  0.00000000E+00  0.00000000E+00
  0.00000000E+00  0.00000000E+00  0.00000000E+00
  0.00000000E+00  0.00000000E+00  0.00000000E+00
