Poscar file generated with pyiron       
   1.00000000000000     
     4.7846570000000002    0.0375660000000000    0.1050030000000000
    -0.0847060000000000   10.4746939999999995    0.1287070000000000
    -0.3907360000000000   -0.2245910000000000   17.8042949999999998
   Cs   I    Pb
     4    12     4
Direct
  0.7394685122194673  0.1182927804662057  0.3503592595423797
  0.2384589402231754  0.9567969371422720  0.6934113477033819
  0.7406555467288456  0.6191771646797051  0.1934392040192563
  0.2383689958364172  0.4582314029292931  0.8503471232751636
  0.7395705947927951  0.3781065176679306  0.0204616609251644
  0.2397232893554389  0.7006702901156174  0.0235878626575214
  0.7390168676954971  0.8753666185637243  0.5234931577888631
  0.2391563747710848  0.1978531590351906  0.5205119394446385
  0.2395088666345586  0.0741354609361480  0.9089563096590041
  0.7399630188738442  0.0044513745674308  0.1351722976061396
  0.2389203941096483  0.5716330375095922  0.6350503036242330
  0.7393453183650536  0.5019569600909293  0.4088969236149040
  0.2399641292748171  0.3365348350391884  0.2372414898000272
  0.7386240732830842  0.7408779625595372  0.8071338974865725
  0.2403661669528958  0.8355179946762590  0.3070696150860712
  0.7386770956338466  0.2396509729156620  0.7373265221885390
  0.2398065392772821  0.1989521978575297  0.0832817978386373
  0.7395507233513641  0.8798844797458969  0.9608690394791708
  0.2392299848368609  0.6963763912875933  0.4607385342347285
  0.7390195876370456  0.3770291763118863  0.5832440230023153
 
  0.00000000E+00  0.00000000E+00  0.00000000E+00
  0.00000000E+00  0.00000000E+00  0.00000000E+00
  0.00000000E+00  0.00000000E+00  0.00000000E+00
  0.00000000E+00  0.00000000E+00  0.00000000E+00
  0.00000000E+00  0.00000000E+00  0.00000000E+00
  0.00000000E+00  0.00000000E+00  0.00000000E+00
  0.00000000E+00  0.00000000E+00  0.00000000E+00
  0.00000000E+00  0.00000000E+00  0.00000000E+00
  0.00000000E+00  0.00000000E+00  0.00000000E+00
  0.00000000E+00  0.00000000E+00  0.00000000E+00
  0.00000000E+00  0.00000000E+00  0.00000000E+00
  0.00000000E+00  0.00000000E+00  0.00000000E+00
  0.00000000E+00  0.00000000E+00  0.00000000E+00
  0.00000000E+00  0.00000000E+00  0.00000000E+00
  0.00000000E+00  0.00000000E+00  0.00000000E+00
  0.00000000E+00  0.00000000E+00  0.00000000E+00
  0.00000000E+00  0.00000000E+00  0.00000000E+00
  0.00000000E+00  0.00000000E+00  0.00000000E+00
  0.00000000E+00  0.00000000E+00  0.00000000E+00
  0.00000000E+00  0.00000000E+00  0.00000000E+00
