Poscar file generated with pyiron       
   1.00000000000000     
     8.4463032320723297    0.1455109954281801   -0.3076764043803700
    -0.1413993543743902    8.9691974827614445    0.5304358233186245
     0.4627947929637215   -0.7239843420664279   12.4384327932064060
   Cs   I    Pb
     4    12     4
Direct
  0.1064167123491484  0.4496678043456159  0.2257578016887684
  0.0490007131945279  0.2912993097802568  0.7263041008769147
  0.6059125987178059  0.7916109997615034  0.7248724800522666
  0.5495967046128138  0.9511969115926351  0.2241724245449522
  0.2670806095703808  0.1765473915817112  0.4354369378143434
  0.8931414618381044  0.5643275863018994  0.5154495019431131
  0.7664985633493272  0.0649044419954579  0.5145387706213272
  0.3934395004057560  0.6781262446074473  0.4357922327253965
  0.8878287593075211  0.5652969315190577  0.9345303791935896
  0.2634648907890759  0.1758933968323190  0.0158958599812206
  0.3880156938826305  0.6763057713578042  0.0150896568657719
  0.7636817888453891  0.0656526242712766  0.9353350671842555
  0.1600116938594943  0.8757257836458512  0.7256887421889433
  0.9947246763187957  0.8648187890177312  0.2256055937284654
  0.6592403382586607  0.3686905571816812  0.2247298128799903
  0.4945494237754240  0.3748595940487247  0.7247421360707056
  0.0796438030333242  0.8708766146296911  0.4754700294337584
  0.5797660284144852  0.3712221723554687  0.4749433714395956
  0.0756856498713320  0.8704287616551504  0.9755408028727776
  0.5754808783275258  0.3709553919180290  0.9746998086358720
 
  0.00000000E+00  0.00000000E+00  0.00000000E+00
  0.00000000E+00  0.00000000E+00  0.00000000E+00
  0.00000000E+00  0.00000000E+00  0.00000000E+00
  0.00000000E+00  0.00000000E+00  0.00000000E+00
  0.00000000E+00  0.00000000E+00  0.00000000E+00
  0.00000000E+00  0.00000000E+00  0.00000000E+00
  0.00000000E+00  0.00000000E+00  0.00000000E+00
  0.00000000E+00  0.00000000E+00  0.00000000E+00
  0.00000000E+00  0.00000000E+00  0.00000000E+00
  0.00000000E+00  0.00000000E+00  0.00000000E+00
  0.00000000E+00  0.00000000E+00  0.00000000E+00
  0.00000000E+00  0.00000000E+00  0.00000000E+00
  0.00000000E+00  0.00000000E+00  0.00000000E+00
  0.00000000E+00  0.00000000E+00  0.00000000E+00
  0.00000000E+00  0.00000000E+00  0.00000000E+00
  0.00000000E+00  0.00000000E+00  0.00000000E+00
  0.00000000E+00  0.00000000E+00  0.00000000E+00
  0.00000000E+00  0.00000000E+00  0.00000000E+00
  0.00000000E+00  0.00000000E+00  0.00000000E+00
  0.00000000E+00  0.00000000E+00  0.00000000E+00
