Poscar file generated with pyiron       
   1.00000000000000     
     8.8706002896780110    0.4174610133477235   -0.1300639055217323
    -0.0700332150512274    8.8415130918799747    0.4301507848699326
     0.2347680079136887   -0.6340687103323311   12.2237321315738097
   Cs   I    Pb
     4    12     4
Direct
  0.0994703958596043  0.3689890657005965  0.2003133173872156
  0.0751771246056576  0.3916014040749652  0.6986582131029035
  0.6015606426365046  0.8660082143828504  0.7508849959315330
  0.5758040121583121  0.8930410303207867  0.2490431198506900
  0.3116476767299285  0.1448651682832408  0.4531306555533671
  0.8172523024073520  0.6393067101443006  0.4941765245153789
  0.8095049856352565  0.1198463138997570  0.5425007140019314
  0.3147343831846809  0.6241891782963207  0.4060542988887613
  0.8610566765901164  0.6186683605654768  0.9549355505308375
  0.3624871078216479  0.1172377413839586  0.9960616456758912
  0.3628330279344812  0.6374743383218772  0.0425656112731994
  0.8648277131424190  0.1387384653907445  0.9063592180891992
  0.1735699860583601  0.8282493918850414  0.7202484200932646
  0.0035817153460978  0.9321027783756869  0.2207073706324663
  0.6720234416269395  0.3274830280604540  0.2283779170033347
  0.5028864042702029  0.4316912353227748  0.7287470216959149
  0.0755558554292926  0.8845469964008024  0.4725646259436297
  0.5751697078670008  0.3842298348640338  0.4766320514929261
  0.1008996098794333  0.8761204106216752  0.9724331163434839
  0.6005520797967884  0.3757484691472555  0.9765786556060161
 
  0.00000000E+00  0.00000000E+00  0.00000000E+00
  0.00000000E+00  0.00000000E+00  0.00000000E+00
  0.00000000E+00  0.00000000E+00  0.00000000E+00
  0.00000000E+00  0.00000000E+00  0.00000000E+00
  0.00000000E+00  0.00000000E+00  0.00000000E+00
  0.00000000E+00  0.00000000E+00  0.00000000E+00
  0.00000000E+00  0.00000000E+00  0.00000000E+00
  0.00000000E+00  0.00000000E+00  0.00000000E+00
  0.00000000E+00  0.00000000E+00  0.00000000E+00
  0.00000000E+00  0.00000000E+00  0.00000000E+00
  0.00000000E+00  0.00000000E+00  0.00000000E+00
  0.00000000E+00  0.00000000E+00  0.00000000E+00
  0.00000000E+00  0.00000000E+00  0.00000000E+00
  0.00000000E+00  0.00000000E+00  0.00000000E+00
  0.00000000E+00  0.00000000E+00  0.00000000E+00
  0.00000000E+00  0.00000000E+00  0.00000000E+00
  0.00000000E+00  0.00000000E+00  0.00000000E+00
  0.00000000E+00  0.00000000E+00  0.00000000E+00
  0.00000000E+00  0.00000000E+00  0.00000000E+00
  0.00000000E+00  0.00000000E+00  0.00000000E+00
