Poscar file generated with pyiron       
   1.00000000000000     
     8.8668850824105263   -0.2210708396362007   -0.1469695661931363
    -0.1108417632177724    8.8229837125073765    0.2846589172585665
     0.2350408166489945   -0.2287477911061387   12.2981779587126638
   Cs   I    Pb
     4    12     4
Direct
  0.0942232622987555  0.3264717716975951  0.2139417739501740
  0.0737906830192396  0.3523288788201197  0.7096983850975838
  0.5883073539859016  0.8658980504432270  0.7193567831828124
  0.5827754010308669  0.8163281381036610  0.2044818172429957
  0.3635682667398811  0.0611948223245696  0.3988556558159165
  0.8044161881114772  0.6179860996011673  0.5251227863087320
  0.8655565900212765  0.1210998024586856  0.4744750652597177
  0.3016777368343797  0.5564380406313990  0.4494703294867439
  0.8263089103355074  0.6017616642556798  0.8956420253100360
  0.3445995347544767  0.0804711792578877  0.0282547803692725
  0.3255932016200113  0.5808835686465171  0.9754325695374059
  0.8452258260238561  0.1013775811553192  0.9494555585902327
  0.1584996395874270  0.8996078678697016  0.7112916827057973
  0.0119446146041318  0.7803812937258708  0.2124074324309436
  0.6636201639456577  0.3900311099732812  0.2115732835173113
  0.5058532109484049  0.2913716381285592  0.7130751952261676
  0.0843019581588678  0.8391924065088664  0.4620152305488277
  0.5840337527654437  0.3395407250319599  0.4621232247599282
  0.0855329497981335  0.8411023517998807  0.9619467700903755
  0.5853493234016414  0.3414071381176620  0.9622120976025019
 
  0.00000000E+00  0.00000000E+00  0.00000000E+00
  0.00000000E+00  0.00000000E+00  0.00000000E+00
  0.00000000E+00  0.00000000E+00  0.00000000E+00
  0.00000000E+00  0.00000000E+00  0.00000000E+00
  0.00000000E+00  0.00000000E+00  0.00000000E+00
  0.00000000E+00  0.00000000E+00  0.00000000E+00
  0.00000000E+00  0.00000000E+00  0.00000000E+00
  0.00000000E+00  0.00000000E+00  0.00000000E+00
  0.00000000E+00  0.00000000E+00  0.00000000E+00
  0.00000000E+00  0.00000000E+00  0.00000000E+00
  0.00000000E+00  0.00000000E+00  0.00000000E+00
  0.00000000E+00  0.00000000E+00  0.00000000E+00
  0.00000000E+00  0.00000000E+00  0.00000000E+00
  0.00000000E+00  0.00000000E+00  0.00000000E+00
  0.00000000E+00  0.00000000E+00  0.00000000E+00
  0.00000000E+00  0.00000000E+00  0.00000000E+00
  0.00000000E+00  0.00000000E+00  0.00000000E+00
  0.00000000E+00  0.00000000E+00  0.00000000E+00
  0.00000000E+00  0.00000000E+00  0.00000000E+00
  0.00000000E+00  0.00000000E+00  0.00000000E+00
