Poscar file generated with pyiron       
   1.00000000000000     
     8.4068090000000009    0.0551130000000000   -0.1879180000000000
    -0.0477810000000000    8.9942940000000000    0.4012720000000000
     0.2887210000000000   -0.5488110000000000   12.4778000000000002
   Cs   I    Pb
     4    12     4
Direct
  0.1206225404729651  0.3220930128065476  0.2076153299993067
  0.0607868021394395  0.4869447425603468  0.7072905758012169
  0.6213685986198314  0.9868646953572267  0.7068047928545482
  0.5599669452363116  0.8222545125862908  0.2069475462426098
  0.4075060530881345  0.0966080128748104  0.4181054684385472
  0.7755025437324434  0.7124776373054473  0.4966914039997619
  0.9078027370821289  0.2129256116541285  0.4967601515280933
  0.2755438997580981  0.5966404885127616  0.4179462809045447
  0.7739544875338638  0.7122694841821158  0.9180808810704093
  0.4054357420430748  0.0964617123117790  0.9966622181448770
  0.2735587987222488  0.5963621179638494  0.9968959106197914
  0.9056191508419431  0.2122014485300951  0.9177399685945105
  0.1715089591288788  0.9021664477995799  0.7078099310165271
  0.0092988605882951  0.9068409353879687  0.2077688514796421
  0.6713950914120872  0.4065821328854966  0.2073489525215422
  0.5097322153651902  0.4021749772597900  0.7073131499064118
  0.0915443198801640  0.9046801116140131  0.4577543562527069
  0.5914831884160634  0.4046978150832317  0.4574083762171171
  0.0893856162474478  0.9043147097706310  0.9577593346419206
  0.5896562347823036  0.4041427332567125  0.9574524146117085
 
  0.00000000E+00  0.00000000E+00  0.00000000E+00
  0.00000000E+00  0.00000000E+00  0.00000000E+00
  0.00000000E+00  0.00000000E+00  0.00000000E+00
  0.00000000E+00  0.00000000E+00  0.00000000E+00
  0.00000000E+00  0.00000000E+00  0.00000000E+00
  0.00000000E+00  0.00000000E+00  0.00000000E+00
  0.00000000E+00  0.00000000E+00  0.00000000E+00
  0.00000000E+00  0.00000000E+00  0.00000000E+00
  0.00000000E+00  0.00000000E+00  0.00000000E+00
  0.00000000E+00  0.00000000E+00  0.00000000E+00
  0.00000000E+00  0.00000000E+00  0.00000000E+00
  0.00000000E+00  0.00000000E+00  0.00000000E+00
  0.00000000E+00  0.00000000E+00  0.00000000E+00
  0.00000000E+00  0.00000000E+00  0.00000000E+00
  0.00000000E+00  0.00000000E+00  0.00000000E+00
  0.00000000E+00  0.00000000E+00  0.00000000E+00
  0.00000000E+00  0.00000000E+00  0.00000000E+00
  0.00000000E+00  0.00000000E+00  0.00000000E+00
  0.00000000E+00  0.00000000E+00  0.00000000E+00
  0.00000000E+00  0.00000000E+00  0.00000000E+00
