Poscar file generated with pyiron       
   1.00000000000000     
     8.4691481404675031    0.0827744394848996   -0.0655035968595543
    -0.0822277787031495    8.9590322700831724    0.6125778516168739
     0.1090957379847966   -0.8432115788233248   12.4410895396523209
   Cs   I    Pb
     4    12     4
Direct
  0.0987291216716556  0.4572557769227306  0.2234496371827203
  0.0431420687072372  0.3000913603595999  0.7234144736517530
  0.5984771299512240  0.8008492593178318  0.7236056806917993
  0.5432717439092546  0.9586451256194792  0.2234072337184706
  0.2587006622307256  0.1845221738346715  0.4335171543707729
  0.8827358403432886  0.5734159635656713  0.5138992605997791
  0.7587551927340551  0.0738134481540615  0.5135926939741036
  0.3827464129471920  0.6847580499081097  0.4330274939149587
  0.8833117325853919  0.5733506177789762  0.9332178042822515
  0.2588915484736705  0.1845731856905581  0.0134586175254693
  0.3832554627279322  0.6852706098543604  0.0137982405386368
  0.7589110545925143  0.0741313257498848  0.9333558649419067
  0.1531947342116739  0.8824177610930147  0.7234010898542669
  0.9879303511693941  0.8748009174229820  0.2235008634331935
  0.6533110179303928  0.3753246185288603  0.2235146785193297
  0.4879481119223014  0.3843301860745975  0.7236028471918530
  0.0705979840125769  0.8788759045167536  0.4733844794729332
  0.5705938891938654  0.3793003655246958  0.4735576431566214
  0.0708807160980447  0.8791875196039624  0.9734717582358240
  0.5709762900842044  0.3796505855547743  0.9734820743971294
 
  0.00000000E+00  0.00000000E+00  0.00000000E+00
  0.00000000E+00  0.00000000E+00  0.00000000E+00
  0.00000000E+00  0.00000000E+00  0.00000000E+00
  0.00000000E+00  0.00000000E+00  0.00000000E+00
  0.00000000E+00  0.00000000E+00  0.00000000E+00
  0.00000000E+00  0.00000000E+00  0.00000000E+00
  0.00000000E+00  0.00000000E+00  0.00000000E+00
  0.00000000E+00  0.00000000E+00  0.00000000E+00
  0.00000000E+00  0.00000000E+00  0.00000000E+00
  0.00000000E+00  0.00000000E+00  0.00000000E+00
  0.00000000E+00  0.00000000E+00  0.00000000E+00
  0.00000000E+00  0.00000000E+00  0.00000000E+00
  0.00000000E+00  0.00000000E+00  0.00000000E+00
  0.00000000E+00  0.00000000E+00  0.00000000E+00
  0.00000000E+00  0.00000000E+00  0.00000000E+00
  0.00000000E+00  0.00000000E+00  0.00000000E+00
  0.00000000E+00  0.00000000E+00  0.00000000E+00
  0.00000000E+00  0.00000000E+00  0.00000000E+00
  0.00000000E+00  0.00000000E+00  0.00000000E+00
  0.00000000E+00  0.00000000E+00  0.00000000E+00
