Poscar file generated with pyiron       
   1.00000000000000     
     8.4475112523536815    0.0616613560146629   -0.1477644648112137
    -0.0603062882877237    8.9884738916028777    0.2312977792994589
     0.2207087002293734   -0.3173874467211621   12.4721228178519628
   Cs   I    Pb
     4    12     4
Direct
  0.0956959960963409  0.3503132525984399  0.2340846108726075
  0.0388422064943654  0.5101561734713213  0.7342126565813196
  0.5959601248612045  0.0103302494127272  0.7349113678487442
  0.5389037809005097  0.8504755318234801  0.2348722282313349
  0.3798241311731729  0.1242571236968180  0.4448300786667828
  0.7532342943257291  0.7366867962183495  0.5244598377807702
  0.8801102373890070  0.2364073160691578  0.5244279334799516
  0.2534913766441983  0.6239514418566618  0.4444472884955230
  0.7548351328627925  0.7363910490765602  0.9447250811375710
  0.3812358238685511  0.1240662678329027  0.0243711005522425
  0.2549140747764727  0.6241873405390461  0.0243640909463730
  0.8813729002324929  0.2365395839796356  0.9445356014041939
  0.1497640378218581  0.9262664737080634  0.7342879963035067
  0.9853840322805135  0.9337881283521152  0.2342873374345516
  0.6492963849798628  0.4339332535023304  0.2345852368879913
  0.4851068731092205  0.4266487318989603  0.7345952032038021
  0.0666839155452035  0.9300469471075553  0.4843835780505811
  0.5668349330954811  0.4301466899956532  0.4846359124863800
  0.0680467995000201  0.9303040819724878  0.9843092177353220
  0.5679528824116996  0.4303678587463661  0.9845718669393251
 
  0.00000000E+00  0.00000000E+00  0.00000000E+00
  0.00000000E+00  0.00000000E+00  0.00000000E+00
  0.00000000E+00  0.00000000E+00  0.00000000E+00
  0.00000000E+00  0.00000000E+00  0.00000000E+00
  0.00000000E+00  0.00000000E+00  0.00000000E+00
  0.00000000E+00  0.00000000E+00  0.00000000E+00
  0.00000000E+00  0.00000000E+00  0.00000000E+00
  0.00000000E+00  0.00000000E+00  0.00000000E+00
  0.00000000E+00  0.00000000E+00  0.00000000E+00
  0.00000000E+00  0.00000000E+00  0.00000000E+00
  0.00000000E+00  0.00000000E+00  0.00000000E+00
  0.00000000E+00  0.00000000E+00  0.00000000E+00
  0.00000000E+00  0.00000000E+00  0.00000000E+00
  0.00000000E+00  0.00000000E+00  0.00000000E+00
  0.00000000E+00  0.00000000E+00  0.00000000E+00
  0.00000000E+00  0.00000000E+00  0.00000000E+00
  0.00000000E+00  0.00000000E+00  0.00000000E+00
  0.00000000E+00  0.00000000E+00  0.00000000E+00
  0.00000000E+00  0.00000000E+00  0.00000000E+00
  0.00000000E+00  0.00000000E+00  0.00000000E+00
