Poscar file generated with pyiron       
   1.00000000000000     
     8.4153716632390836    0.0962857228415993   -0.3229809711125993
    -0.0909146956901117    8.9841088968090883    0.4716716256455259
     0.4788359707586355   -0.6632780226703671   12.4633805466972856
   Cs   I    Pb
     4    12     4
Direct
  0.0866497486102318  0.4585996704492323  0.2113609365035935
  0.0268647892458444  0.2952516294948992  0.7114164181981779
  0.5860208815319805  0.7951664745847766  0.7116650336004842
  0.5267237981788597  0.9585256739852865  0.2116178117992108
  0.2406754533288681  0.1837455217475556  0.4215493806864702
  0.8707312439837701  0.5690074646170546  0.5012187926421334
  0.7405784097430360  0.0683444161462741  0.5005292548230803
  0.3709889050536112  0.6837021551769863  0.4224181336933315
  0.8718875799092877  0.5695944275434425  0.9212840571179294
  0.2419593899988601  0.1841886616149433  0.0015378941876473
  0.3719973800442176  0.6841896970578446  0.0006651089256515
  0.7419030400055766  0.0692358787245908  0.9220436971165002
  0.1379166116238373  0.8806955027432584  0.7112165838988883
  0.9748181308462033  0.8732514940898973  0.2112058722830947
  0.6383438608483177  0.3747341255612577  0.2114191330370870
  0.4755405725658199  0.3778017478596382  0.7115734836715669
  0.0558089479950772  0.8764593974585374  0.4612388334838020
  0.5560397469472211  0.3761479132684510  0.4614271332098308
  0.0569118982854625  0.8769593546585002  0.9612836456307617
  0.5571318558666093  0.3768319179359609  0.9614444822095386
 
  0.00000000E+00  0.00000000E+00  0.00000000E+00
  0.00000000E+00  0.00000000E+00  0.00000000E+00
  0.00000000E+00  0.00000000E+00  0.00000000E+00
  0.00000000E+00  0.00000000E+00  0.00000000E+00
  0.00000000E+00  0.00000000E+00  0.00000000E+00
  0.00000000E+00  0.00000000E+00  0.00000000E+00
  0.00000000E+00  0.00000000E+00  0.00000000E+00
  0.00000000E+00  0.00000000E+00  0.00000000E+00
  0.00000000E+00  0.00000000E+00  0.00000000E+00
  0.00000000E+00  0.00000000E+00  0.00000000E+00
  0.00000000E+00  0.00000000E+00  0.00000000E+00
  0.00000000E+00  0.00000000E+00  0.00000000E+00
  0.00000000E+00  0.00000000E+00  0.00000000E+00
  0.00000000E+00  0.00000000E+00  0.00000000E+00
  0.00000000E+00  0.00000000E+00  0.00000000E+00
  0.00000000E+00  0.00000000E+00  0.00000000E+00
  0.00000000E+00  0.00000000E+00  0.00000000E+00
  0.00000000E+00  0.00000000E+00  0.00000000E+00
  0.00000000E+00  0.00000000E+00  0.00000000E+00
  0.00000000E+00  0.00000000E+00  0.00000000E+00
