Poscar file generated with pyiron       
   1.00000000000000     
     8.4523495378172253   -0.0965150293075009   -0.1942526322396292
     0.1196129852829909    8.9853603154806283    0.2459142307582097
     0.2869123592070385   -0.3436162951351751   12.4674006291329764
   Cs   I    Pb
     4    12     4
Direct
  0.0991408016170946  0.2465053352340418  0.2135913903089801
  0.0415842322427879  0.4058142824872518  0.7132958581165670
  0.5988137990234126  0.9056968535781628  0.7131467255034312
  0.5425271205889292  0.7455491622760907  0.2133260562038618
  0.3838977728133789  0.0193256797808289  0.4237867566830597
  0.7569997310376263  0.6323446414399745  0.5024008173737942
  0.8843304249667302  0.1327259930624770  0.5033030378605533
  0.2575372067038391  0.5198221336753710  0.4234477030350945
  0.7579397707208628  0.6317698147158416  0.9235529114374308
  0.3833843449336665  0.0199390508220033  0.0034057094355431
  0.2574610413979443  0.5202156740049793  0.0041852425545525
  0.8827989729073185  0.1316751479228799  0.9222811990007426
  0.1533463983038041  0.8207269373422729  0.7135546665949497
  0.9879865747242924  0.8307347326800700  0.2136028447316097
  0.6526402655901417  0.3283237219859290  0.2133946682358705
  0.4880961485081708  0.3227895491132672  0.7134659359376730
  0.0704733157180275  0.8260383532987596  0.4636271783157455
  0.5703888918152561  0.3257061535013488  0.4634788696271362
  0.0704124857836978  0.8263575812029973  0.9635955601092839
  0.5701796415567129  0.3261135397998589  0.9634841278383008
 
  0.00000000E+00  0.00000000E+00  0.00000000E+00
  0.00000000E+00  0.00000000E+00  0.00000000E+00
  0.00000000E+00  0.00000000E+00  0.00000000E+00
  0.00000000E+00  0.00000000E+00  0.00000000E+00
  0.00000000E+00  0.00000000E+00  0.00000000E+00
  0.00000000E+00  0.00000000E+00  0.00000000E+00
  0.00000000E+00  0.00000000E+00  0.00000000E+00
  0.00000000E+00  0.00000000E+00  0.00000000E+00
  0.00000000E+00  0.00000000E+00  0.00000000E+00
  0.00000000E+00  0.00000000E+00  0.00000000E+00
  0.00000000E+00  0.00000000E+00  0.00000000E+00
  0.00000000E+00  0.00000000E+00  0.00000000E+00
  0.00000000E+00  0.00000000E+00  0.00000000E+00
  0.00000000E+00  0.00000000E+00  0.00000000E+00
  0.00000000E+00  0.00000000E+00  0.00000000E+00
  0.00000000E+00  0.00000000E+00  0.00000000E+00
  0.00000000E+00  0.00000000E+00  0.00000000E+00
  0.00000000E+00  0.00000000E+00  0.00000000E+00
  0.00000000E+00  0.00000000E+00  0.00000000E+00
  0.00000000E+00  0.00000000E+00  0.00000000E+00
