Poscar file generated with pyiron       
   1.00000000000000     
     8.9098926249282790    0.0739700461660604   -0.2642903653033875
     0.2492622097186316    8.7701020857730150    0.6083540098311678
     0.2790950408110878   -0.6378264255295970   12.2547564353521370
   Cs   I    Pb
     4    12     4
Direct
  0.0692860431035455  0.3242955213277512  0.1921723324280840
  0.0490728255302206  0.3649403055684672  0.7004456268918219
  0.5666993662373092  0.8453838718988074  0.7175064947999850
  0.5470165768432816  0.8411994294038561  0.2237203251857422
  0.3169870134115048  0.0786702842433482  0.4385380172750555
  0.7786650184735650  0.6175213548116507  0.4829215367396327
  0.8135851490932489  0.1048000615674415  0.5248555925762549
  0.2776464011850620  0.5726634315024330  0.3961019765562058
  0.8194326610028517  0.5887840265196896  0.9362315991064553
  0.3204390711578398  0.0869384233852340  0.9824786193260632
  0.3199149377948675  0.5963364148116322  0.0248760120641426
  0.8195195735000252  0.1004102579452184  0.8927606296512745
  0.1413766502090698  0.7996430300014954  0.7087610872345980
  0.9727917359530698  0.8898836604035995  0.2067094554712843
  0.6423776601906390  0.2971234749466430  0.2126605489711129
  0.4755689865814241  0.3915131199115011  0.7107223532398751
  0.0520651719813781  0.8449156768597458  0.4581313537605762
  0.5525953619211692  0.3449923485786142  0.4606516925311304
  0.0629131175416184  0.8429647103356447  0.9584758418441625
  0.5638177291840326  0.3425209420929771  0.9609691298056532
 
  0.00000000E+00  0.00000000E+00  0.00000000E+00
  0.00000000E+00  0.00000000E+00  0.00000000E+00
  0.00000000E+00  0.00000000E+00  0.00000000E+00
  0.00000000E+00  0.00000000E+00  0.00000000E+00
  0.00000000E+00  0.00000000E+00  0.00000000E+00
  0.00000000E+00  0.00000000E+00  0.00000000E+00
  0.00000000E+00  0.00000000E+00  0.00000000E+00
  0.00000000E+00  0.00000000E+00  0.00000000E+00
  0.00000000E+00  0.00000000E+00  0.00000000E+00
  0.00000000E+00  0.00000000E+00  0.00000000E+00
  0.00000000E+00  0.00000000E+00  0.00000000E+00
  0.00000000E+00  0.00000000E+00  0.00000000E+00
  0.00000000E+00  0.00000000E+00  0.00000000E+00
  0.00000000E+00  0.00000000E+00  0.00000000E+00
  0.00000000E+00  0.00000000E+00  0.00000000E+00
  0.00000000E+00  0.00000000E+00  0.00000000E+00
  0.00000000E+00  0.00000000E+00  0.00000000E+00
  0.00000000E+00  0.00000000E+00  0.00000000E+00
  0.00000000E+00  0.00000000E+00  0.00000000E+00
  0.00000000E+00  0.00000000E+00  0.00000000E+00
