Poscar file generated with pyiron       
   1.00000000000000     
     8.8688915167983033    0.4388250325663964   -0.1156477876180167
    -0.1092841918603737    8.8388159001264537    0.4616484372851507
     0.1928541223179974   -0.6175797009927092   12.2236880339299372
   Cs   I    Pb
     4    12     4
Direct
  0.1114450084953319  0.3604450106713740  0.1975140228438595
  0.0843410317578168  0.3790531924792374  0.6970578714469499
  0.6105243705688026  0.8520734058209553  0.7524465015873556
  0.5848798041515494  0.8846763292820925  0.2521065808959227
  0.3189324798850006  0.1348594422671439  0.4515560050996065
  0.8226504394604927  0.6308027251659484  0.4965565685847071
  0.8169481794666592  0.1085150738016686  0.5420783655892124
  0.3212566662951513  0.6131623704451524  0.4065673015173098
  0.8785101135536503  0.6016954299061136  0.9516644653204973
  0.3708395987476121  0.1092764833953148  0.9966039835819019
  0.3802529020160320  0.6307838845586421  0.0413312950398497
  0.8730215605708179  0.1239472519765643  0.9055158296755670
  0.1833956741441274  0.8183205492043019  0.7194613569824999
  0.0121882835725915  0.9208529860543313  0.2193812716721695
  0.6844436768765679  0.3193808474342908  0.2287599792174866
  0.5113010275534754  0.4181225954613647  0.7287111184746435
  0.0829203481451023  0.8740449604580676  0.4718144477526781
  0.5831750991599620  0.3735110972429465  0.4764967987919087
  0.1125281758549920  0.8644217715316742  0.9718226056209256
  0.6127164380861924  0.3640521849420616  0.9764434209918935
 
  0.00000000E+00  0.00000000E+00  0.00000000E+00
  0.00000000E+00  0.00000000E+00  0.00000000E+00
  0.00000000E+00  0.00000000E+00  0.00000000E+00
  0.00000000E+00  0.00000000E+00  0.00000000E+00
  0.00000000E+00  0.00000000E+00  0.00000000E+00
  0.00000000E+00  0.00000000E+00  0.00000000E+00
  0.00000000E+00  0.00000000E+00  0.00000000E+00
  0.00000000E+00  0.00000000E+00  0.00000000E+00
  0.00000000E+00  0.00000000E+00  0.00000000E+00
  0.00000000E+00  0.00000000E+00  0.00000000E+00
  0.00000000E+00  0.00000000E+00  0.00000000E+00
  0.00000000E+00  0.00000000E+00  0.00000000E+00
  0.00000000E+00  0.00000000E+00  0.00000000E+00
  0.00000000E+00  0.00000000E+00  0.00000000E+00
  0.00000000E+00  0.00000000E+00  0.00000000E+00
  0.00000000E+00  0.00000000E+00  0.00000000E+00
  0.00000000E+00  0.00000000E+00  0.00000000E+00
  0.00000000E+00  0.00000000E+00  0.00000000E+00
  0.00000000E+00  0.00000000E+00  0.00000000E+00
  0.00000000E+00  0.00000000E+00  0.00000000E+00
