Poscar file generated with pyiron       
   1.00000000000000     
     8.4728980000000007    0.0744800000000000   -0.2203190000000000
    -0.0693770000000000    8.9772300000000005    0.3546920000000000
     0.3338960000000000   -0.4874360000000000   12.4486500000000007
   Cs   I    Pb
     4    12     4
Direct
  0.1071152524671319  0.3365345852388870  0.2061053021051933
  0.0523506162600711  0.4925794505343717  0.7060441613790758
  0.6070117722382733  0.9927856125329484  0.7059536037019072
  0.5512407684579870  0.8369746187906841  0.2060776911057545
  0.3909041379130969  0.1099561858459239  0.4157689419222450
  0.7682784306967037  0.7195285859874971  0.4963980316826024
  0.8915547146634282  0.2198016745384095  0.4961127797956024
  0.2686945039937356  0.6098753072742511  0.4152504538537229
  0.7685369071580155  0.7193983029919337  0.9151861683786393
  0.3913400253002237  0.1095052855378427  0.9959419073389526
  0.2681274413331352  0.6097985270105397  0.9963551792445458
  0.8910140910795832  0.2196253115654940  0.9156962264598434
  0.1624402112991703  0.9096373154535087  0.7057545477180369
  0.9960075794195191  0.9199305958524207  0.2058360170929845
  0.6629470234455255  0.4202722807749382  0.2054924314647835
  0.4966756352297921  0.4094453010428296  0.7055578221694105
  0.0793699154166418  0.9142977126102778  0.4557467673362723
  0.5801290193411859  0.4144014658836923  0.4553634368136628
  0.0795759073186062  0.9149132310060821  0.9558182834120146
  0.5792835312423250  0.4149534742917211  0.9554382528557284
 
  0.00000000E+00  0.00000000E+00  0.00000000E+00
  0.00000000E+00  0.00000000E+00  0.00000000E+00
  0.00000000E+00  0.00000000E+00  0.00000000E+00
  0.00000000E+00  0.00000000E+00  0.00000000E+00
  0.00000000E+00  0.00000000E+00  0.00000000E+00
  0.00000000E+00  0.00000000E+00  0.00000000E+00
  0.00000000E+00  0.00000000E+00  0.00000000E+00
  0.00000000E+00  0.00000000E+00  0.00000000E+00
  0.00000000E+00  0.00000000E+00  0.00000000E+00
  0.00000000E+00  0.00000000E+00  0.00000000E+00
  0.00000000E+00  0.00000000E+00  0.00000000E+00
  0.00000000E+00  0.00000000E+00  0.00000000E+00
  0.00000000E+00  0.00000000E+00  0.00000000E+00
  0.00000000E+00  0.00000000E+00  0.00000000E+00
  0.00000000E+00  0.00000000E+00  0.00000000E+00
  0.00000000E+00  0.00000000E+00  0.00000000E+00
  0.00000000E+00  0.00000000E+00  0.00000000E+00
  0.00000000E+00  0.00000000E+00  0.00000000E+00
  0.00000000E+00  0.00000000E+00  0.00000000E+00
  0.00000000E+00  0.00000000E+00  0.00000000E+00
