Poscar file generated with pyiron       
   1.00000000000000     
     8.9059969229738201    0.1679548602846334    0.0237447958229344
     0.1807152810395369    8.8027756572224742    0.4712320869554959
     0.0648128372798867   -0.7999546717229289   12.2393224770164846
   Cs   I    Pb
     4    12     4
Direct
  0.0821030057526594  0.3797053298864363  0.2295354899122787
  0.0636909493797768  0.3779617646940958  0.7233127431325129
  0.5804336559874423  0.8617817365389034  0.7233270220151981
  0.5633724484710522  0.8980111289096540  0.2147179631609574
  0.3101790853769663  0.1433546110548362  0.4563879956887490
  0.8415546065025274  0.6114835094312089  0.4908725635043762
  0.8118431710991132  0.1175323467163046  0.5397493741989163
  0.3407851994608072  0.6435834808755573  0.4062186187550396
  0.8211326700527974  0.6289262023607229  0.9548025124183882
  0.3168717842100691  0.1334591696472761  0.9897265683857795
  0.3198510013468673  0.6314287060085567  0.0404809661076050
  0.8170239705496977  0.1252068911187542  0.9056492087199416
  0.1529208243486422  0.8239217062862999  0.7226360496069124
  0.9914113275311662  0.9341601746136304  0.2241687055723275
  0.6547908631425916  0.3290566647504374  0.2215415238562589
  0.4903147216077838  0.4304701484994803  0.7231609729955418
  0.0741520953569425  0.8784928786190201  0.4730883073647734
  0.5743217319412164  0.3787570289591017  0.4725703468670155
  0.0704266615716190  0.8800637689022238  0.9730053607541130
  0.5705397415272504  0.3804015372565399  0.9725387354168237
 
  0.00000000E+00  0.00000000E+00  0.00000000E+00
  0.00000000E+00  0.00000000E+00  0.00000000E+00
  0.00000000E+00  0.00000000E+00  0.00000000E+00
  0.00000000E+00  0.00000000E+00  0.00000000E+00
  0.00000000E+00  0.00000000E+00  0.00000000E+00
  0.00000000E+00  0.00000000E+00  0.00000000E+00
  0.00000000E+00  0.00000000E+00  0.00000000E+00
  0.00000000E+00  0.00000000E+00  0.00000000E+00
  0.00000000E+00  0.00000000E+00  0.00000000E+00
  0.00000000E+00  0.00000000E+00  0.00000000E+00
  0.00000000E+00  0.00000000E+00  0.00000000E+00
  0.00000000E+00  0.00000000E+00  0.00000000E+00
  0.00000000E+00  0.00000000E+00  0.00000000E+00
  0.00000000E+00  0.00000000E+00  0.00000000E+00
  0.00000000E+00  0.00000000E+00  0.00000000E+00
  0.00000000E+00  0.00000000E+00  0.00000000E+00
  0.00000000E+00  0.00000000E+00  0.00000000E+00
  0.00000000E+00  0.00000000E+00  0.00000000E+00
  0.00000000E+00  0.00000000E+00  0.00000000E+00
  0.00000000E+00  0.00000000E+00  0.00000000E+00
