Poscar file generated with pyiron       
   1.00000000000000     
     8.4149084917972239    0.0377700928020472   -0.3029592810030273
    -0.0276577367581512    8.9850938063423911    0.5339736996529098
     0.4471194113164767   -0.7340528957935764   12.4618060359434590
   Cs   I    Pb
     4    12     4
Direct
  0.0872563599492191  0.4559244473448634  0.2104952147389931
  0.0271277296563549  0.2927525922671536  0.7107802258895575
  0.5871683179397099  0.7928787899064252  0.7111201220971185
  0.5278965254577161  0.9560238306133900  0.2108892340594800
  0.2416619524322197  0.1820979755245720  0.4213197919693151
  0.8716389012761837  0.5672160300218989  0.5008160937002872
  0.7416821454943187  0.0670663644484239  0.5002070279429528
  0.3715693878812713  0.6817367118490714  0.4213696005090621
  0.8726672678781462  0.5669486907634174  0.9210726832723841
  0.2418957597070604  0.1819103999230536  0.0003604408402326
  0.3727613197334676  0.6820751550484412  0.9999996756990704
  0.7420132903855596  0.0670265455980579  0.9220666526467343
  0.1386504812537072  0.8778922742756966  0.7109698795737320
  0.9762950900746042  0.8711431290893524  0.2109318297930041
  0.6382930174572253  0.3723288015817272  0.2111453696000297
  0.4758770580546198  0.3765388661098004  0.7112336546184556
  0.0568276716880253  0.8745334915921138  0.4610226537774617
  0.5566105993489973  0.3744543671063114  0.4611600545743414
  0.0572091100213171  0.8744713491786190  0.9608213206600197
  0.5573046738647296  0.3745341018349233  0.9611960804328183
 
  0.00000000E+00  0.00000000E+00  0.00000000E+00
  0.00000000E+00  0.00000000E+00  0.00000000E+00
  0.00000000E+00  0.00000000E+00  0.00000000E+00
  0.00000000E+00  0.00000000E+00  0.00000000E+00
  0.00000000E+00  0.00000000E+00  0.00000000E+00
  0.00000000E+00  0.00000000E+00  0.00000000E+00
  0.00000000E+00  0.00000000E+00  0.00000000E+00
  0.00000000E+00  0.00000000E+00  0.00000000E+00
  0.00000000E+00  0.00000000E+00  0.00000000E+00
  0.00000000E+00  0.00000000E+00  0.00000000E+00
  0.00000000E+00  0.00000000E+00  0.00000000E+00
  0.00000000E+00  0.00000000E+00  0.00000000E+00
  0.00000000E+00  0.00000000E+00  0.00000000E+00
  0.00000000E+00  0.00000000E+00  0.00000000E+00
  0.00000000E+00  0.00000000E+00  0.00000000E+00
  0.00000000E+00  0.00000000E+00  0.00000000E+00
  0.00000000E+00  0.00000000E+00  0.00000000E+00
  0.00000000E+00  0.00000000E+00  0.00000000E+00
  0.00000000E+00  0.00000000E+00  0.00000000E+00
  0.00000000E+00  0.00000000E+00  0.00000000E+00
