Poscar file generated with pyiron       
   1.00000000000000     
     8.4361448660086555    0.1310944873306177   -0.3228838288608052
    -0.1306808076498179    8.9776517129325999    0.4215988104579438
     0.4855941170176842   -0.5785394458312342   12.4509298161429633
   Cs   I    Pb
     4    12     4
Direct
  0.0890301583000941  0.4608365861778922  0.2176686967057006
  0.0316903799046024  0.3002957247678000  0.7177592892240517
  0.5892386155294188  0.8001698146541889  0.7170772922335813
  0.5312941373981870  0.9615631355257871  0.2170585852089044
  0.2468643249354558  0.1876106851749706  0.4275331017264106
  0.8750282523529784  0.5738161369398761  0.5074269695901632
  0.7468296355705164  0.0738558090611281  0.5064181281602760
  0.3749034050204390  0.6877088244250543  0.4278716259423985
  0.8725342746657549  0.5746855757439909  0.9267197902504830
  0.2462677327866644  0.1867499263919761  0.0080088321842672
  0.3726051412067122  0.6867258822796000  0.0071439193533559
  0.7464220432316275  0.0745066696849443  0.9273432146669069
  0.1428046649202082  0.8848521717068868  0.7173534652225926
  0.9772386348830839  0.8756567823175967  0.2173268588026723
  0.6421063510000298  0.3785059971719376  0.2170398280654845
  0.4782067110490719  0.3834385759693975  0.7170529806464992
  0.0609519413374393  0.8809082445383292  0.4672281675242905
  0.5611895822869757  0.3808878909593135  0.4670642920333229
  0.0595910713321357  0.8805768921977797  0.9673147958903123
  0.5594596408241563  0.3806710306771384  0.9670130529138863
 
  0.00000000E+00  0.00000000E+00  0.00000000E+00
  0.00000000E+00  0.00000000E+00  0.00000000E+00
  0.00000000E+00  0.00000000E+00  0.00000000E+00
  0.00000000E+00  0.00000000E+00  0.00000000E+00
  0.00000000E+00  0.00000000E+00  0.00000000E+00
  0.00000000E+00  0.00000000E+00  0.00000000E+00
  0.00000000E+00  0.00000000E+00  0.00000000E+00
  0.00000000E+00  0.00000000E+00  0.00000000E+00
  0.00000000E+00  0.00000000E+00  0.00000000E+00
  0.00000000E+00  0.00000000E+00  0.00000000E+00
  0.00000000E+00  0.00000000E+00  0.00000000E+00
  0.00000000E+00  0.00000000E+00  0.00000000E+00
  0.00000000E+00  0.00000000E+00  0.00000000E+00
  0.00000000E+00  0.00000000E+00  0.00000000E+00
  0.00000000E+00  0.00000000E+00  0.00000000E+00
  0.00000000E+00  0.00000000E+00  0.00000000E+00
  0.00000000E+00  0.00000000E+00  0.00000000E+00
  0.00000000E+00  0.00000000E+00  0.00000000E+00
  0.00000000E+00  0.00000000E+00  0.00000000E+00
  0.00000000E+00  0.00000000E+00  0.00000000E+00
