Poscar file generated with pyiron       
   1.00000000000000     
     8.4186609212607308    0.1993356789381812   -0.3921362456171369
    -0.1894398830135691    8.9793898758651931    0.5297390556799706
     0.5885767014543714   -0.6925063313775704   12.4509083100085078
   Cs   I    Pb
     4    12     4
Direct
  0.1162160860474974  0.4519785477307952  0.2334285234432863
  0.0567829256818234  0.2890572540033532  0.7331671219909492
  0.6157962186377843  0.7892237466810663  0.7312828797401657
  0.5566485274334008  0.9522958010542988  0.2314572510747137
  0.2741159263505039  0.1776763277381746  0.4427749111587824
  0.9033716691409721  0.5631261742217815  0.5222688888949492
  0.7739562035730375  0.0637729403247159  0.5216279287829430
  0.4032912273478362  0.6782995969475264  0.4426917476120046
  0.8982689751126578  0.5638487582382498  0.9424061076164756
  0.2691606300450854  0.1779681358905175  0.0220903537269268
  0.3985746432521514  0.6774273761711708  0.0219634486285356
  0.7693508693186885  0.0633092125506332  0.9425100280377795
  0.1681224131799544  0.8736211391529638  0.7327938284127155
  0.0042211300586240  0.8671322789920356  0.2327870970763403
  0.6683043589112375  0.3680175705118675  0.2317903123345056
  0.5046306223084869  0.3732150189487760  0.7316570237615793
  0.0884982922198989  0.8708296187637528  0.4826440056933129
  0.5887748990407419  0.3708695401906337  0.4817986484171389
  0.0838197809207245  0.8703632309168970  0.9827006397317609
  0.5839331381660265  0.3705352609633906  0.9818389380664682
 
  0.00000000E+00  0.00000000E+00  0.00000000E+00
  0.00000000E+00  0.00000000E+00  0.00000000E+00
  0.00000000E+00  0.00000000E+00  0.00000000E+00
  0.00000000E+00  0.00000000E+00  0.00000000E+00
  0.00000000E+00  0.00000000E+00  0.00000000E+00
  0.00000000E+00  0.00000000E+00  0.00000000E+00
  0.00000000E+00  0.00000000E+00  0.00000000E+00
  0.00000000E+00  0.00000000E+00  0.00000000E+00
  0.00000000E+00  0.00000000E+00  0.00000000E+00
  0.00000000E+00  0.00000000E+00  0.00000000E+00
  0.00000000E+00  0.00000000E+00  0.00000000E+00
  0.00000000E+00  0.00000000E+00  0.00000000E+00
  0.00000000E+00  0.00000000E+00  0.00000000E+00
  0.00000000E+00  0.00000000E+00  0.00000000E+00
  0.00000000E+00  0.00000000E+00  0.00000000E+00
  0.00000000E+00  0.00000000E+00  0.00000000E+00
  0.00000000E+00  0.00000000E+00  0.00000000E+00
  0.00000000E+00  0.00000000E+00  0.00000000E+00
  0.00000000E+00  0.00000000E+00  0.00000000E+00
  0.00000000E+00  0.00000000E+00  0.00000000E+00
