Poscar file generated with pyiron       
   1.00000000000000     
     8.4314370000000007   -0.0059980000000000   -0.4454070000000000
     0.0266160000000000    8.9733789999999996    0.4787860000000000
     0.6573099999999999   -0.6611060000000000   12.4459579999999992
   Cs   I    Pb
     4    12     4
Direct
  0.1239539230888482  0.3085960274435777  0.2180288225369580
  0.0682285147749155  0.4708405009812751  0.7177943626240051
  0.6274049376448545  0.9712646324181549  0.7166484993717859
  0.5678424612555588  0.8094546567841903  0.2169310336380263
  0.4109900587537112  0.0829003247140321  0.4270135704579445
  0.7831716033369958  0.6963701120044945  0.5069762369093240
  0.9109991191266431  0.1966879231535970  0.5069856542631257
  0.2827596529304586  0.5826597736386034  0.4284089331358416
  0.7825946365215088  0.6966278152484620  0.9266745215075929
  0.4102464756508724  0.0829973414593042  0.0072872859147068
  0.2816555298650414  0.5821916902801973  0.0073630485829668
  0.9103760322262318  0.1967308864908119  0.9285473788800687
  0.1799811433636478  0.8880553407069982  0.7173049149417636
  0.0149690111789198  0.8912631501178438  0.2172368957643087
  0.6777427526268269  0.3938212511824446  0.2171683529867465
  0.5146335195865817  0.3864598355686937  0.7172283144680804
  0.0972192172840494  0.8896904954100364  0.4672887153633667
  0.5968284660558041  0.3898436633812921  0.4673166786999161
  0.0967291672200474  0.8894747530723777  0.9671010808237597
  0.5961432060068788  0.3898197110547272  0.9672472441719648
 
  0.00000000E+00  0.00000000E+00  0.00000000E+00
  0.00000000E+00  0.00000000E+00  0.00000000E+00
  0.00000000E+00  0.00000000E+00  0.00000000E+00
  0.00000000E+00  0.00000000E+00  0.00000000E+00
  0.00000000E+00  0.00000000E+00  0.00000000E+00
  0.00000000E+00  0.00000000E+00  0.00000000E+00
  0.00000000E+00  0.00000000E+00  0.00000000E+00
  0.00000000E+00  0.00000000E+00  0.00000000E+00
  0.00000000E+00  0.00000000E+00  0.00000000E+00
  0.00000000E+00  0.00000000E+00  0.00000000E+00
  0.00000000E+00  0.00000000E+00  0.00000000E+00
  0.00000000E+00  0.00000000E+00  0.00000000E+00
  0.00000000E+00  0.00000000E+00  0.00000000E+00
  0.00000000E+00  0.00000000E+00  0.00000000E+00
  0.00000000E+00  0.00000000E+00  0.00000000E+00
  0.00000000E+00  0.00000000E+00  0.00000000E+00
  0.00000000E+00  0.00000000E+00  0.00000000E+00
  0.00000000E+00  0.00000000E+00  0.00000000E+00
  0.00000000E+00  0.00000000E+00  0.00000000E+00
  0.00000000E+00  0.00000000E+00  0.00000000E+00
