Poscar file generated with pyiron       
   1.00000000000000     
     8.9008988405832650    0.1666374003965891   -0.2349674153093211
     0.1920705225012738    8.7960123824829122    0.6151785717265565
     0.2726454381710918   -0.7357511517927852   12.2315657598744902
   Cs   I    Pb
     4    12     4
Direct
  0.0638753099295113  0.3664219625370139  0.1942565492183759
  0.0446832043235961  0.3841522500603055  0.6995088026959345
  0.5624226695184709  0.8653837514791493  0.7189478318628443
  0.5428947976350194  0.8865912422325029  0.2245409231537999
  0.2967588595086735  0.1265807435991434  0.4409570836311605
  0.7872608587672900  0.6359775036222600  0.4787050466451135
  0.7956842891029604  0.1245608379845337  0.5267547259472938
  0.2863728733902690  0.6178927348925081  0.3920017613858032
  0.8209535910201571  0.6139561214910618  0.9398217331774249
  0.3078353379782373  0.1270101564028461  0.9767949962410789
  0.3215957143427633  0.6354411452868677  0.0262603975310976
  0.8092809890071996  0.1256388021691236  0.8915670840801744
  0.1355182594149729  0.8232504607241884  0.7078477845493834
  0.9701040620394382  0.9280319516838142  0.2065788137836401
  0.6366000263003502  0.3238295653722023  0.2117885281468786
  0.4713652890260234  0.4281223843478454  0.7103401965988143
  0.0474342756329902  0.8771125851804482  0.4579747906257806
  0.5477947374765597  0.3773860659249887  0.4601558891625441
  0.0586420571936030  0.8742756752886601  0.9580799285840639
  0.5590021016511655  0.3746045113194632  0.9603946100527954
 
  0.00000000E+00  0.00000000E+00  0.00000000E+00
  0.00000000E+00  0.00000000E+00  0.00000000E+00
  0.00000000E+00  0.00000000E+00  0.00000000E+00
  0.00000000E+00  0.00000000E+00  0.00000000E+00
  0.00000000E+00  0.00000000E+00  0.00000000E+00
  0.00000000E+00  0.00000000E+00  0.00000000E+00
  0.00000000E+00  0.00000000E+00  0.00000000E+00
  0.00000000E+00  0.00000000E+00  0.00000000E+00
  0.00000000E+00  0.00000000E+00  0.00000000E+00
  0.00000000E+00  0.00000000E+00  0.00000000E+00
  0.00000000E+00  0.00000000E+00  0.00000000E+00
  0.00000000E+00  0.00000000E+00  0.00000000E+00
  0.00000000E+00  0.00000000E+00  0.00000000E+00
  0.00000000E+00  0.00000000E+00  0.00000000E+00
  0.00000000E+00  0.00000000E+00  0.00000000E+00
  0.00000000E+00  0.00000000E+00  0.00000000E+00
  0.00000000E+00  0.00000000E+00  0.00000000E+00
  0.00000000E+00  0.00000000E+00  0.00000000E+00
  0.00000000E+00  0.00000000E+00  0.00000000E+00
  0.00000000E+00  0.00000000E+00  0.00000000E+00
