Poscar file generated with pyiron       
   1.00000000000000     
     8.3777096351378244    0.0387023152274083   -0.2728041269268628
    -0.0340140098871246    9.0120758432522692    0.3083459414401805
     0.4055894730343417   -0.4205004135753498   12.4875038614968883
   Cs   I    Pb
     4    12     4
Direct
  0.0955427747971724  0.3565385675760371  0.2247495849189007
  0.0320064416715104  0.5236309364147071  0.7249136687572419
  0.5938167074939800  0.0221772826224034  0.7265191641996908
  0.5313965842675183  0.8551364636926857  0.2265799652607534
  0.3784168463015156  0.1301565877559999  0.4367921651667939
  0.7437110824318939  0.7478730675834161  0.5147736040584566
  0.8788766811281056  0.2479961677265244  0.5146851420666527
  0.2439983481128671  0.6303543659038801  0.4366734252393087
  0.7478165200361141  0.7477846583527874  0.9372817040361702
  0.3824471236718689  0.1302214580934505  0.0151610907376443
  0.2479229316629068  0.6317781413815479  0.0145852474832766
  0.8823540321914347  0.2488050305798872  0.9361372349871678
  0.1424398883833836  0.9381607780787596  0.7251709648721573
  0.9814696178151312  0.9430462721383560  0.2252185999441037
  0.6438706046033208  0.4406484417475932  0.2261457021092940
  0.4830062576905790  0.4369980093829538  0.7261839807890140
  0.0607624172337768  0.9390149364280724  0.4750154733965303
  0.5613830058974579  0.4384783103663306  0.4759229024566612
  0.0646929969137844  0.9399472204592301  0.9753582166233524
  0.5648749783474556  0.4391837848984951  0.9762181836102933
 
  0.00000000E+00  0.00000000E+00  0.00000000E+00
  0.00000000E+00  0.00000000E+00  0.00000000E+00
  0.00000000E+00  0.00000000E+00  0.00000000E+00
  0.00000000E+00  0.00000000E+00  0.00000000E+00
  0.00000000E+00  0.00000000E+00  0.00000000E+00
  0.00000000E+00  0.00000000E+00  0.00000000E+00
  0.00000000E+00  0.00000000E+00  0.00000000E+00
  0.00000000E+00  0.00000000E+00  0.00000000E+00
  0.00000000E+00  0.00000000E+00  0.00000000E+00
  0.00000000E+00  0.00000000E+00  0.00000000E+00
  0.00000000E+00  0.00000000E+00  0.00000000E+00
  0.00000000E+00  0.00000000E+00  0.00000000E+00
  0.00000000E+00  0.00000000E+00  0.00000000E+00
  0.00000000E+00  0.00000000E+00  0.00000000E+00
  0.00000000E+00  0.00000000E+00  0.00000000E+00
  0.00000000E+00  0.00000000E+00  0.00000000E+00
  0.00000000E+00  0.00000000E+00  0.00000000E+00
  0.00000000E+00  0.00000000E+00  0.00000000E+00
  0.00000000E+00  0.00000000E+00  0.00000000E+00
  0.00000000E+00  0.00000000E+00  0.00000000E+00
