Poscar file generated with pyiron       
   1.00000000000000     
     8.8644128800273378    0.3830201688794957   -0.1013961680284698
    -0.0404749249945537    8.8442935130212810    0.4558610006060480
     0.1972427401110455   -0.6748739900353985   12.2207262967342647
   Cs   I    Pb
     4    12     4
Direct
  0.0999473515754159  0.3721931365649589  0.1973962330400620
  0.0740777826253751  0.3972425406948350  0.6959466402781693
  0.6013169803273654  0.8710245821560180  0.7500791358277393
  0.5756726444195055  0.8971342405371509  0.2483794406631596
  0.3099191337551979  0.1500091739570542  0.4515050862094870
  0.8149718292752755  0.6449304932007751  0.4926140669031444
  0.8078382255429459  0.1244284677606182  0.5407960827843561
  0.3126054207148712  0.6282515347182893  0.4043965533108133
  0.8610343307378354  0.6234413959971664  0.9531527618625125
  0.3648659027660037  0.1196200830736546  0.9942768971114337
  0.3633817199322849  0.6413315524925733  0.0412425958763869
  0.8669942808868897  0.1439768363029932  0.9047696274883964
  0.1733335888850925  0.8324237081910227  0.7183557043887906
  0.0032973986953517  0.9369229631136450  0.2187629548353526
  0.6719987797410265  0.3321711360942046  0.2269167254557029
  0.5021697756401504  0.4363664418528374  0.7273336542192854
  0.0741870784076923  0.8893206762813844  0.4708053082815407
  0.5737888503137600  0.3890561430404699  0.4750339668849102
  0.1016340319590220  0.8800355755589427  0.9706759424265250
  0.6012229790475893  0.3797392855361545  0.9749364436532280
 
  0.00000000E+00  0.00000000E+00  0.00000000E+00
  0.00000000E+00  0.00000000E+00  0.00000000E+00
  0.00000000E+00  0.00000000E+00  0.00000000E+00
  0.00000000E+00  0.00000000E+00  0.00000000E+00
  0.00000000E+00  0.00000000E+00  0.00000000E+00
  0.00000000E+00  0.00000000E+00  0.00000000E+00
  0.00000000E+00  0.00000000E+00  0.00000000E+00
  0.00000000E+00  0.00000000E+00  0.00000000E+00
  0.00000000E+00  0.00000000E+00  0.00000000E+00
  0.00000000E+00  0.00000000E+00  0.00000000E+00
  0.00000000E+00  0.00000000E+00  0.00000000E+00
  0.00000000E+00  0.00000000E+00  0.00000000E+00
  0.00000000E+00  0.00000000E+00  0.00000000E+00
  0.00000000E+00  0.00000000E+00  0.00000000E+00
  0.00000000E+00  0.00000000E+00  0.00000000E+00
  0.00000000E+00  0.00000000E+00  0.00000000E+00
  0.00000000E+00  0.00000000E+00  0.00000000E+00
  0.00000000E+00  0.00000000E+00  0.00000000E+00
  0.00000000E+00  0.00000000E+00  0.00000000E+00
  0.00000000E+00  0.00000000E+00  0.00000000E+00
