Poscar file generated with pyiron       
   1.00000000000000     
     8.8744245259478092    0.2108274261118535   -0.2311932112134162
     0.1633555948310247    8.8260045182629572    0.3768630647931390
     0.2930326648039877   -0.3239630117059310   12.2795784093200275
   Cs   I    Pb
     4    12     4
Direct
  0.0746007697272187  0.3511308842854303  0.2028114993151892
  0.0598988972857702  0.3448887091241059  0.7146333558794752
  0.5664200184140591  0.8379995032589466  0.7000687342966652
  0.5633561632963262  0.8619797083064064  0.2193773921586120
  0.3214712485180650  0.0938818872369229  0.4508121507844559
  0.8079392757891170  0.6070564900453014  0.4679346461132100
  0.8198009890994944  0.1031048269581513  0.5270412317233187
  0.3096527524827175  0.5964975634491232  0.3918347079851943
  0.8432335213058381  0.5718117751815511  0.9505744831293572
  0.2930607361318066  0.1222991228882706  0.9676554644260578
  0.3403143923254946  0.6193575596578531  0.0250504820903900
  0.7946914075116884  0.0768574937749148  0.8932437571248197
  0.1379145430160304  0.7862109676884717  0.7098081505730928
  0.9926906261648635  0.9114762726515722  0.2082001133783442
  0.6427557806100773  0.2923013757617577  0.2106067958051654
  0.4904664335358332  0.4070013844965586  0.7087138117224617
  0.0648232509663059  0.8501550451293352  0.4591583019246361
  0.5653201758957467  0.3503695940677883  0.4594459511890459
  0.0670391914436959  0.8476734187763768  0.9593247609440453
  0.5676392650845413  0.3479616396009779  0.9594102824185424
 
  0.00000000E+00  0.00000000E+00  0.00000000E+00
  0.00000000E+00  0.00000000E+00  0.00000000E+00
  0.00000000E+00  0.00000000E+00  0.00000000E+00
  0.00000000E+00  0.00000000E+00  0.00000000E+00
  0.00000000E+00  0.00000000E+00  0.00000000E+00
  0.00000000E+00  0.00000000E+00  0.00000000E+00
  0.00000000E+00  0.00000000E+00  0.00000000E+00
  0.00000000E+00  0.00000000E+00  0.00000000E+00
  0.00000000E+00  0.00000000E+00  0.00000000E+00
  0.00000000E+00  0.00000000E+00  0.00000000E+00
  0.00000000E+00  0.00000000E+00  0.00000000E+00
  0.00000000E+00  0.00000000E+00  0.00000000E+00
  0.00000000E+00  0.00000000E+00  0.00000000E+00
  0.00000000E+00  0.00000000E+00  0.00000000E+00
  0.00000000E+00  0.00000000E+00  0.00000000E+00
  0.00000000E+00  0.00000000E+00  0.00000000E+00
  0.00000000E+00  0.00000000E+00  0.00000000E+00
  0.00000000E+00  0.00000000E+00  0.00000000E+00
  0.00000000E+00  0.00000000E+00  0.00000000E+00
  0.00000000E+00  0.00000000E+00  0.00000000E+00
