Poscar file generated with pyiron       
   1.00000000000000     
     8.4052148806129665    0.0713205421484315   -0.2263241130803264
    -0.0695800635298040    8.9947915703363002    0.2232454237365978
     0.3382535801871311   -0.3063397988622093   12.4793003983304001
   Cs   I    Pb
     4    12     4
Direct
  0.0928271650954210  0.3586236986904484  0.2235508207801540
  0.0333493538805845  0.5230694898744821  0.7235064391295717
  0.5925471239323229  0.0222357941854881  0.7246618213253723
  0.5324071511314021  0.8579117156231977  0.2244218094751338
  0.3770009664529397  0.1324788662084808  0.4346561020886354
  0.7454644797112008  0.7482728487879243  0.5134352373018960
  0.8771796699715496  0.2483601508278300  0.5135068651504243
  0.2457303671094113  0.6326799633158618  0.4346010973439817
  0.7485135493349560  0.7479528898145353  0.9349839219106006
  0.3795652476082956  0.1326542855359439  0.0133437233271052
  0.2487125053107819  0.6331055022303629  0.0134156548427240
  0.8801679226882327  0.2487694232038942  0.9345101435670660
  0.1433913576861424  0.9383843766493465  0.7236250060434504
  0.9810090780602635  0.9433959022001051  0.2236256306401469
  0.6436290221533194  0.4425317395017705  0.2241856241490959
  0.4818330808161920  0.4372430105594615  0.7241729146533264
  0.0610232075940054  0.9404441729937135  0.4735727265733157
  0.5615163858566783  0.4400793074595502  0.4740828659669157
  0.0639947769872256  0.9404244148131731  0.9737265028104556
  0.5642813951692929  0.4402653053767692  0.9740651996019901
 
  0.00000000E+00  0.00000000E+00  0.00000000E+00
  0.00000000E+00  0.00000000E+00  0.00000000E+00
  0.00000000E+00  0.00000000E+00  0.00000000E+00
  0.00000000E+00  0.00000000E+00  0.00000000E+00
  0.00000000E+00  0.00000000E+00  0.00000000E+00
  0.00000000E+00  0.00000000E+00  0.00000000E+00
  0.00000000E+00  0.00000000E+00  0.00000000E+00
  0.00000000E+00  0.00000000E+00  0.00000000E+00
  0.00000000E+00  0.00000000E+00  0.00000000E+00
  0.00000000E+00  0.00000000E+00  0.00000000E+00
  0.00000000E+00  0.00000000E+00  0.00000000E+00
  0.00000000E+00  0.00000000E+00  0.00000000E+00
  0.00000000E+00  0.00000000E+00  0.00000000E+00
  0.00000000E+00  0.00000000E+00  0.00000000E+00
  0.00000000E+00  0.00000000E+00  0.00000000E+00
  0.00000000E+00  0.00000000E+00  0.00000000E+00
  0.00000000E+00  0.00000000E+00  0.00000000E+00
  0.00000000E+00  0.00000000E+00  0.00000000E+00
  0.00000000E+00  0.00000000E+00  0.00000000E+00
  0.00000000E+00  0.00000000E+00  0.00000000E+00
