Poscar file generated with pyiron       
   1.00000000000000     
     8.9286394129902433    0.1343164186871908   -0.2967346853584839
     0.2000730241901403    8.7822301989802440    0.4041667031937596
     0.3148453232476683   -0.3863207989639581   12.2615464925395266
   Cs   I    Pb
     4    12     4
Direct
  0.0735692988896662  0.3347358599570557  0.2055425660237725
  0.0546540419238381  0.3553374041938921  0.7133597807529749
  0.5739827706483026  0.8378115505101821  0.7040718581094902
  0.5550410785473803  0.8541860247995238  0.2108300557571639
  0.3231456138088469  0.0863443146991138  0.4369606515208420
  0.8062341144539485  0.6034264542968978  0.4803766250625426
  0.8232452294062640  0.1021318059460547  0.5236529284498724
  0.3064082352350679  0.5888598721319774  0.3919644410516934
  0.8199963026241046  0.5885784435230343  0.9359866501422696
  0.3059299212021143  0.1026871928808062  0.9799254941613379
  0.3193278866712589  0.5994934254335909  0.0247595385280055
  0.8064164861715758  0.0902790976620675  0.8922452875255091
  0.1472991562593443  0.7971319192555478  0.7095025714557481
  0.9801092550611793  0.8927861822188141  0.2075437086596118
  0.6482387926552421  0.2977393693479223  0.2090662613073254
  0.4794784323400124  0.3937447339688840  0.7072222149414801
  0.0645834299848348  0.8448520266612203  0.4584928614860840
  0.5643699171655940  0.3453100903200674  0.4582544408124365
  0.0634526597968020  0.8452298720474111  0.9585117852992872
  0.5633860700709563  0.3455312612912797  0.9581095534894110
 
  0.00000000E+00  0.00000000E+00  0.00000000E+00
  0.00000000E+00  0.00000000E+00  0.00000000E+00
  0.00000000E+00  0.00000000E+00  0.00000000E+00
  0.00000000E+00  0.00000000E+00  0.00000000E+00
  0.00000000E+00  0.00000000E+00  0.00000000E+00
  0.00000000E+00  0.00000000E+00  0.00000000E+00
  0.00000000E+00  0.00000000E+00  0.00000000E+00
  0.00000000E+00  0.00000000E+00  0.00000000E+00
  0.00000000E+00  0.00000000E+00  0.00000000E+00
  0.00000000E+00  0.00000000E+00  0.00000000E+00
  0.00000000E+00  0.00000000E+00  0.00000000E+00
  0.00000000E+00  0.00000000E+00  0.00000000E+00
  0.00000000E+00  0.00000000E+00  0.00000000E+00
  0.00000000E+00  0.00000000E+00  0.00000000E+00
  0.00000000E+00  0.00000000E+00  0.00000000E+00
  0.00000000E+00  0.00000000E+00  0.00000000E+00
  0.00000000E+00  0.00000000E+00  0.00000000E+00
  0.00000000E+00  0.00000000E+00  0.00000000E+00
  0.00000000E+00  0.00000000E+00  0.00000000E+00
  0.00000000E+00  0.00000000E+00  0.00000000E+00
