Poscar file generated with pyiron       
   1.00000000000000     
     8.8974469999999997    0.0998790000000000   -0.2399770000000000
     0.2502730000000000    8.7945890000000002    0.6166210000000000
     0.2579630000000000   -0.6851580000000000   12.2516680000000004
   Cs   I    Pb
     4    12     4
Direct
  0.0656884950466576  0.3488656044883029  0.1936381469162853
  0.0468519500194517  0.3899542176705708  0.7023210703947527
  0.5641150775944510  0.8719892508000910  0.7155834902183216
  0.5446970445617794  0.8669524663132719  0.2215035991885443
  0.3159418975720172  0.1039864813650055  0.4415156383167727
  0.7782826679954766  0.6419426425891928  0.4796140419073680
  0.8124334123526396  0.1308684406736660  0.5253506522014817
  0.2772713029377556  0.5992786327704280  0.3942212674487493
  0.8135403701759358  0.6166249382025839  0.9393091606743980
  0.3182754406177750  0.1112513837533839  0.9779256207047879
  0.3140073372569816  0.6193744271115449  0.0256855092246653
  0.8175333972427268  0.1265946885771214  0.8918691402382919
  0.1374396690418749  0.8206982213844611  0.7085591058362155
  0.9718423433788956  0.9179115564677645  0.2067418030557420
  0.6373710768489502  0.3175337978870800  0.2118040956488940
  0.4748032780127573  0.4226337366823429  0.7101509540391788
  0.0505450863136261  0.8704942571295575  0.4581348537142347
  0.5507666576179915  0.3707166570961178  0.4601710449478986
  0.0600677793622424  0.8682335508172301  0.9582620347744779
  0.5607119606444044  0.3680582707962117  0.9601972259824763
 
  0.00000000E+00  0.00000000E+00  0.00000000E+00
  0.00000000E+00  0.00000000E+00  0.00000000E+00
  0.00000000E+00  0.00000000E+00  0.00000000E+00
  0.00000000E+00  0.00000000E+00  0.00000000E+00
  0.00000000E+00  0.00000000E+00  0.00000000E+00
  0.00000000E+00  0.00000000E+00  0.00000000E+00
  0.00000000E+00  0.00000000E+00  0.00000000E+00
  0.00000000E+00  0.00000000E+00  0.00000000E+00
  0.00000000E+00  0.00000000E+00  0.00000000E+00
  0.00000000E+00  0.00000000E+00  0.00000000E+00
  0.00000000E+00  0.00000000E+00  0.00000000E+00
  0.00000000E+00  0.00000000E+00  0.00000000E+00
  0.00000000E+00  0.00000000E+00  0.00000000E+00
  0.00000000E+00  0.00000000E+00  0.00000000E+00
  0.00000000E+00  0.00000000E+00  0.00000000E+00
  0.00000000E+00  0.00000000E+00  0.00000000E+00
  0.00000000E+00  0.00000000E+00  0.00000000E+00
  0.00000000E+00  0.00000000E+00  0.00000000E+00
  0.00000000E+00  0.00000000E+00  0.00000000E+00
  0.00000000E+00  0.00000000E+00  0.00000000E+00
