Poscar file generated with pyiron       
   1.00000000000000     
     8.4278629448513929    0.0751763560531550   -0.1634233823391887
    -0.0798928538964639    8.9954669321860550    0.2382728331294164
     0.2441189190137209   -0.3244115485085065   12.4774442469947999
   Cs   I    Pb
     4    12     4
Direct
  0.0981365762673064  0.3531872404491223  0.2369843199863312
  0.0393938577899475  0.5157312714301786  0.7370244535915896
  0.5992066119470094  0.0154459681269155  0.7372167380917546
  0.5397324388353815  0.8530800033525591  0.2369887524965303
  0.3833334369468379  0.1273349974323895  0.4469852597715528
  0.7548743274177250  0.7406597296441317  0.5273055542242880
  0.8834126199631468  0.2408234418569064  0.5270377995619382
  0.2547360950441210  0.6271510252310637  0.4473045425757194
  0.7549445266532111  0.7413677920888243  0.9473434847474080
  0.3838645596503696  0.1274391312868977  0.0270497624006482
  0.2547283020752961  0.6275982793560887  0.0267147372008565
  0.8837176409353460  0.2416454171186004  0.9474791726509701
  0.1516864803078494  0.9314017695609024  0.7370030798180963
  0.9872670473860948  0.9373079816450138  0.2370210670009455
  0.6509128496469376  0.4380545081770220  0.2370887906120881
  0.4861738505966813  0.4302821382541935  0.7371617758349558
  0.0690094268152090  0.9340429740404009  0.4870053418432945
  0.5689190172161958  0.4339711409458117  0.4871425800737247
  0.0694819911055430  0.9347646477087215  0.9869318550219458
  0.5690620919820643  0.4346356480793443  0.9869902416083260
 
  0.00000000E+00  0.00000000E+00  0.00000000E+00
  0.00000000E+00  0.00000000E+00  0.00000000E+00
  0.00000000E+00  0.00000000E+00  0.00000000E+00
  0.00000000E+00  0.00000000E+00  0.00000000E+00
  0.00000000E+00  0.00000000E+00  0.00000000E+00
  0.00000000E+00  0.00000000E+00  0.00000000E+00
  0.00000000E+00  0.00000000E+00  0.00000000E+00
  0.00000000E+00  0.00000000E+00  0.00000000E+00
  0.00000000E+00  0.00000000E+00  0.00000000E+00
  0.00000000E+00  0.00000000E+00  0.00000000E+00
  0.00000000E+00  0.00000000E+00  0.00000000E+00
  0.00000000E+00  0.00000000E+00  0.00000000E+00
  0.00000000E+00  0.00000000E+00  0.00000000E+00
  0.00000000E+00  0.00000000E+00  0.00000000E+00
  0.00000000E+00  0.00000000E+00  0.00000000E+00
  0.00000000E+00  0.00000000E+00  0.00000000E+00
  0.00000000E+00  0.00000000E+00  0.00000000E+00
  0.00000000E+00  0.00000000E+00  0.00000000E+00
  0.00000000E+00  0.00000000E+00  0.00000000E+00
  0.00000000E+00  0.00000000E+00  0.00000000E+00
