Poscar file generated with pyiron       
   1.00000000000000     
     8.8640438000848345    0.4232916219619374   -0.4763879034700699
    -0.0765744754375916    8.8270252776867917    0.3463063618964852
     0.6778701505237045   -0.4635417715445725   12.2382267965537199
   Cs   I    Pb
     4    12     4
Direct
  0.1065866042392994  0.3789728096326187  0.2155979045396566
  0.0816391613192072  0.3705489629426744  0.7151607335651196
  0.6054463319308727  0.8475233445471786  0.7559522531861995
  0.5836446973734741  0.8991058703584529  0.2560578081646011
  0.3113577062855270  0.1474147636512356  0.4612697806796932
  0.8378338379708045  0.6202912773522568  0.5034208452400750
  0.8100568143109865  0.1045814251881746  0.5495986335001929
  0.3349584596339465  0.6297913336958503  0.4164255906338904
  0.8769031760678909  0.6007134851115251  0.9615450256766988
  0.3496064291737683  0.1284312416930514  0.0046746109858098
  0.3790208672255648  0.6434012519283485  0.0490209946809452
  0.8534161278213832  0.1181177913386822  0.9157581946030895
  0.1775391290028308  0.8226197749160901  0.7300577776573014
  0.0111647802001940  0.9255106901879691  0.2299731580574514
  0.6798202277876217  0.3266816079575246  0.2366548313668000
  0.5090346643423700  0.4197181816575358  0.7365479553850065
  0.0834539724511267  0.8780141681664833  0.4819564631983572
  0.5835501970208522  0.3772213894522449  0.4853222178913949
  0.1050773668351535  0.8702430417942386  0.9819756199861314
  0.6050217470813871  0.3700980365634652  0.9854743032716559
 
  0.00000000E+00  0.00000000E+00  0.00000000E+00
  0.00000000E+00  0.00000000E+00  0.00000000E+00
  0.00000000E+00  0.00000000E+00  0.00000000E+00
  0.00000000E+00  0.00000000E+00  0.00000000E+00
  0.00000000E+00  0.00000000E+00  0.00000000E+00
  0.00000000E+00  0.00000000E+00  0.00000000E+00
  0.00000000E+00  0.00000000E+00  0.00000000E+00
  0.00000000E+00  0.00000000E+00  0.00000000E+00
  0.00000000E+00  0.00000000E+00  0.00000000E+00
  0.00000000E+00  0.00000000E+00  0.00000000E+00
  0.00000000E+00  0.00000000E+00  0.00000000E+00
  0.00000000E+00  0.00000000E+00  0.00000000E+00
  0.00000000E+00  0.00000000E+00  0.00000000E+00
  0.00000000E+00  0.00000000E+00  0.00000000E+00
  0.00000000E+00  0.00000000E+00  0.00000000E+00
  0.00000000E+00  0.00000000E+00  0.00000000E+00
  0.00000000E+00  0.00000000E+00  0.00000000E+00
  0.00000000E+00  0.00000000E+00  0.00000000E+00
  0.00000000E+00  0.00000000E+00  0.00000000E+00
  0.00000000E+00  0.00000000E+00  0.00000000E+00
