Poscar file generated with pyiron       
   1.00000000000000     
     8.4494242891604561   -0.0653732194178400   -0.1524488119538613
     0.0795664252060766    8.9719152084919873    0.5113537321382845
     0.2209096783528890   -0.7137932286777087   12.4588593828841496
   Cs   I    Pb
     4    12     4
Direct
  0.1065499762443308  0.3069278049417486  0.2201743477449381
  0.0493728790809793  0.4676693088715962  0.7201758425867684
  0.6065501571737436  0.9681602801677287  0.7201826072839250
  0.5489106751893602  0.8076529133709560  0.2200035496567943
  0.3911140629739925  0.0809770065187372  0.4302252429140664
  0.7642193950733687  0.6943119539052345  0.5101108822475190
  0.8912969464793238  0.1939542413029355  0.5098531454931345
  0.2645056576585560  0.5806921558369097  0.4300402485541333
  0.7641087201291971  0.6941219619044899  0.9301464733574616
  0.3911205396406980  0.0809269102860583  0.0099834242520737
  0.2641035045641181  0.5810960600434798  0.0099782874960293
  0.8909370205365067  0.1941109078060473  0.9302688254549653
  0.1597038081009062  0.8837516458132906  0.7198384415770992
  0.9958091632228586  0.8904238191161402  0.2198505648948755
  0.6598935099198558  0.3916570611101061  0.2198013548451994
  0.4963603932969385  0.3846971720855378  0.7198156187259304
  0.0776928969753879  0.8871673629517233  0.4698996244524341
  0.5779696101671666  0.3874644815740274  0.4698524454932340
  0.0779590895933255  0.8873061432413872  0.9699568844156115
  0.5779645491472029  0.3876876124604419  0.9699273114726948
 
  0.00000000E+00  0.00000000E+00  0.00000000E+00
  0.00000000E+00  0.00000000E+00  0.00000000E+00
  0.00000000E+00  0.00000000E+00  0.00000000E+00
  0.00000000E+00  0.00000000E+00  0.00000000E+00
  0.00000000E+00  0.00000000E+00  0.00000000E+00
  0.00000000E+00  0.00000000E+00  0.00000000E+00
  0.00000000E+00  0.00000000E+00  0.00000000E+00
  0.00000000E+00  0.00000000E+00  0.00000000E+00
  0.00000000E+00  0.00000000E+00  0.00000000E+00
  0.00000000E+00  0.00000000E+00  0.00000000E+00
  0.00000000E+00  0.00000000E+00  0.00000000E+00
  0.00000000E+00  0.00000000E+00  0.00000000E+00
  0.00000000E+00  0.00000000E+00  0.00000000E+00
  0.00000000E+00  0.00000000E+00  0.00000000E+00
  0.00000000E+00  0.00000000E+00  0.00000000E+00
  0.00000000E+00  0.00000000E+00  0.00000000E+00
  0.00000000E+00  0.00000000E+00  0.00000000E+00
  0.00000000E+00  0.00000000E+00  0.00000000E+00
  0.00000000E+00  0.00000000E+00  0.00000000E+00
  0.00000000E+00  0.00000000E+00  0.00000000E+00
