Poscar file generated with pyiron       
   1.00000000000000     
     8.4151710605872960   -0.0244621939105318   -0.3945146783057804
     0.0478570328987186    8.9799751868962758    0.4704551430829512
     0.5789268626701083   -0.6520946231758163   12.4527234681308414
   Cs   I    Pb
     4    12     4
Direct
  0.1225042916053965  0.3077867981366268  0.2166832693859005
  0.0638921888626441  0.4704682943286980  0.7167707569183935
  0.6228490695842327  0.9707654473302877  0.7165458612416844
  0.5640762428608039  0.8078616444274953  0.2165981272780180
  0.4082643925666110  0.0821522173291825  0.4270021490344245
  0.7787639578701148  0.6966622751939717  0.5062696146218597
  0.9080349875163224  0.1964507896463563  0.5064598271406587
  0.2785059391809836  0.5820104947873187  0.4270551473869020
  0.7782835059993972  0.6964231051979346  0.9270494160908588
  0.4077839106785396  0.0818798581249237  0.0062618339263143
  0.2785237704829362  0.5818570708609445  0.0063417543577858
  0.9079961759094405  0.1964455474615624  0.9273000957992213
  0.1751995892487588  0.8859580108791767  0.7166779258131938
  0.0120449924174371  0.8919804540443412  0.2166241480579160
  0.6745530468037746  0.3919252914587568  0.2167202337600599
  0.5116460278468735  0.3862539411963267  0.7166873215972546
  0.0936446278702451  0.8894800643177030  0.4666764389142425
  0.5933704984807509  0.3895854397424696  0.4666516009018982
  0.0931063970905095  0.8889748604076196  0.9665921377113531
  0.5930705465175192  0.3890305368291130  0.9666829828061499
 
  0.00000000E+00  0.00000000E+00  0.00000000E+00
  0.00000000E+00  0.00000000E+00  0.00000000E+00
  0.00000000E+00  0.00000000E+00  0.00000000E+00
  0.00000000E+00  0.00000000E+00  0.00000000E+00
  0.00000000E+00  0.00000000E+00  0.00000000E+00
  0.00000000E+00  0.00000000E+00  0.00000000E+00
  0.00000000E+00  0.00000000E+00  0.00000000E+00
  0.00000000E+00  0.00000000E+00  0.00000000E+00
  0.00000000E+00  0.00000000E+00  0.00000000E+00
  0.00000000E+00  0.00000000E+00  0.00000000E+00
  0.00000000E+00  0.00000000E+00  0.00000000E+00
  0.00000000E+00  0.00000000E+00  0.00000000E+00
  0.00000000E+00  0.00000000E+00  0.00000000E+00
  0.00000000E+00  0.00000000E+00  0.00000000E+00
  0.00000000E+00  0.00000000E+00  0.00000000E+00
  0.00000000E+00  0.00000000E+00  0.00000000E+00
  0.00000000E+00  0.00000000E+00  0.00000000E+00
  0.00000000E+00  0.00000000E+00  0.00000000E+00
  0.00000000E+00  0.00000000E+00  0.00000000E+00
  0.00000000E+00  0.00000000E+00  0.00000000E+00
