Poscar file generated with pyiron       
   1.00000000000000     
     8.8826083015536899    0.5053628043361290   -0.2278872846261246
    -0.1620640569571399    8.8119793897679166    0.4954254179840983
     0.2647063595083371   -0.4967888633887255   12.2430280402373501
   Cs   I    Pb
     4    12     4
Direct
  0.1210224961380272  0.3520679407456734  0.2041313995505779
  0.0988180650615268  0.3700929656365552  0.7091608252689509
  0.6166622763235330  0.8486967457030992  0.7425884550850671
  0.5940263646081327  0.8737806381184674  0.2491155729825112
  0.3453468238603086  0.1148564702449308  0.4569063947206659
  0.8332166971842957  0.6267175630278184  0.4980216214538435
  0.8433684177170115  0.1092407299658506  0.5443203592745126
  0.3311704352725260  0.6008199831328792  0.4104134453448378
  0.8860804166649365  0.5906696595038103  0.9528948280556684
  0.3659482084736623  0.1106886427587921  0.9958512037017487
  0.3885251767648725  0.6239856057106427  0.0419168465642534
  0.8694573053868152  0.1087241007431104  0.9081731227725853
  0.1903849301442242  0.8106076328427368  0.7238907352162376
  0.0216225498084946  0.9105697444531358  0.2220864507377174
  0.6940239961714672  0.3102314221011974  0.2299414831092036
  0.5251843665467519  0.4113246657674552  0.7281084587693344
  0.0970099546202295  0.8648763645504550  0.4743162961832858
  0.5985624158689841  0.3647906687439426  0.4772312539180767
  0.1174131920916215  0.8558147718768695  0.9748896146826385
  0.6185780036268251  0.3561215075849614  0.9776054550685136
 
  0.00000000E+00  0.00000000E+00  0.00000000E+00
  0.00000000E+00  0.00000000E+00  0.00000000E+00
  0.00000000E+00  0.00000000E+00  0.00000000E+00
  0.00000000E+00  0.00000000E+00  0.00000000E+00
  0.00000000E+00  0.00000000E+00  0.00000000E+00
  0.00000000E+00  0.00000000E+00  0.00000000E+00
  0.00000000E+00  0.00000000E+00  0.00000000E+00
  0.00000000E+00  0.00000000E+00  0.00000000E+00
  0.00000000E+00  0.00000000E+00  0.00000000E+00
  0.00000000E+00  0.00000000E+00  0.00000000E+00
  0.00000000E+00  0.00000000E+00  0.00000000E+00
  0.00000000E+00  0.00000000E+00  0.00000000E+00
  0.00000000E+00  0.00000000E+00  0.00000000E+00
  0.00000000E+00  0.00000000E+00  0.00000000E+00
  0.00000000E+00  0.00000000E+00  0.00000000E+00
  0.00000000E+00  0.00000000E+00  0.00000000E+00
  0.00000000E+00  0.00000000E+00  0.00000000E+00
  0.00000000E+00  0.00000000E+00  0.00000000E+00
  0.00000000E+00  0.00000000E+00  0.00000000E+00
  0.00000000E+00  0.00000000E+00  0.00000000E+00
