Poscar file generated with pyiron       
   1.00000000000000     
     8.4747262023292826   -0.0056534501642103   -0.1888850419439968
     0.0151578021956728    8.9728831995577742    0.3029635496911643
     0.2767628045597217   -0.4179669738334205   12.4600086318039072
   Cs   I    Pb
     4    12     4
Direct
  0.1024939956798843  0.3374105707763616  0.2094401339779325
  0.0477044342928858  0.4944282654166614  0.7094459325833895
  0.6017908035551039  0.9949180154595493  0.7086629875803075
  0.5475161209128260  0.8379563996575781  0.2086789406745826
  0.3874671026969585  0.1103890290447124  0.4191020785102653
  0.7637601304235964  0.7213188465868617  0.4993820810990900
  0.8878561809183334  0.2213715072174273  0.4993917254169875
  0.2642168431543858  0.6105661177986295  0.4187398832168617
  0.7622060958446477  0.7223133487946355  0.9189799885084560
  0.3857646979991418  0.1114447777560540  0.9988743168029358
  0.2623100811121710  0.6109035063976579  0.9995503087941174
  0.8858353830369031  0.2217110563456344  0.9189300405013879
  0.1575901926236774  0.9114613005647041  0.7091674137522548
  0.9919193224457130  0.9205703468169751  0.2091756530270555
  0.6581231918074475  0.4203821373655073  0.2087997182335189
  0.4924638802517048  0.4123237654433435  0.7088168041082460
  0.0755504096523803  0.9154613681729477  0.4590405017200371
  0.5761143741887711  0.4156857451348254  0.4587458673960359
  0.0742439574957415  0.9164853586449023  0.9591086193903205
  0.5742601271169259  0.4167735964296401  0.9588342078710334
 
  0.00000000E+00  0.00000000E+00  0.00000000E+00
  0.00000000E+00  0.00000000E+00  0.00000000E+00
  0.00000000E+00  0.00000000E+00  0.00000000E+00
  0.00000000E+00  0.00000000E+00  0.00000000E+00
  0.00000000E+00  0.00000000E+00  0.00000000E+00
  0.00000000E+00  0.00000000E+00  0.00000000E+00
  0.00000000E+00  0.00000000E+00  0.00000000E+00
  0.00000000E+00  0.00000000E+00  0.00000000E+00
  0.00000000E+00  0.00000000E+00  0.00000000E+00
  0.00000000E+00  0.00000000E+00  0.00000000E+00
  0.00000000E+00  0.00000000E+00  0.00000000E+00
  0.00000000E+00  0.00000000E+00  0.00000000E+00
  0.00000000E+00  0.00000000E+00  0.00000000E+00
  0.00000000E+00  0.00000000E+00  0.00000000E+00
  0.00000000E+00  0.00000000E+00  0.00000000E+00
  0.00000000E+00  0.00000000E+00  0.00000000E+00
  0.00000000E+00  0.00000000E+00  0.00000000E+00
  0.00000000E+00  0.00000000E+00  0.00000000E+00
  0.00000000E+00  0.00000000E+00  0.00000000E+00
  0.00000000E+00  0.00000000E+00  0.00000000E+00
