Poscar file generated with pyiron       
   1.00000000000000     
     8.8621777209785453    0.4814589696818206   -0.3346251063074777
    -0.0740310870848620    8.8359584343394779    0.4444792213294974
     0.4478819265055989   -0.5181177835544203   12.2375196201604854
   Cs   I    Pb
     4    12     4
Direct
  0.0880806612421856  0.3919551171195487  0.2136066215470572
  0.0733507026404894  0.3893488428213507  0.7202429559790774
  0.5829784354467349  0.8807551941269014  0.7238271511013410
  0.5762152631232415  0.9050059022602690  0.2326465276522989
  0.3239412493561883  0.1458317507851386  0.4629281695573318
  0.8271497189050340  0.6427419309943407  0.4821271097493441
  0.8229849558361373  0.1374733334057024  0.5403241347396616
  0.3255887925525731  0.6421303389330020  0.4027414161477639
  0.8490912843895255  0.6251568833580141  0.9613667332088371
  0.3201822518927983  0.1545402136251148  0.9792318018873780
  0.3489849930333874  0.6561754713870457  0.0402971684017241
  0.8229104398070256  0.1320279704282488  0.9039982069140013
  0.1548359222915058  0.8279926213234836  0.7213828170572635
  0.0052228430038429  0.9544415555682600  0.2205435769959918
  0.6574514607072630  0.3337589568536483  0.2229855910145635
  0.5029007329576825  0.4516424209052677  0.7220126775813382
  0.0775813552797359  0.8927066256494207  0.4714994155951489
  0.5776101370681102  0.3934014381145520  0.4723246503563975
  0.0827905578587490  0.8903494388090387  0.9714188962910737
  0.5826357913822738  0.3912201110027122  0.9722765075100256
 
  0.00000000E+00  0.00000000E+00  0.00000000E+00
  0.00000000E+00  0.00000000E+00  0.00000000E+00
  0.00000000E+00  0.00000000E+00  0.00000000E+00
  0.00000000E+00  0.00000000E+00  0.00000000E+00
  0.00000000E+00  0.00000000E+00  0.00000000E+00
  0.00000000E+00  0.00000000E+00  0.00000000E+00
  0.00000000E+00  0.00000000E+00  0.00000000E+00
  0.00000000E+00  0.00000000E+00  0.00000000E+00
  0.00000000E+00  0.00000000E+00  0.00000000E+00
  0.00000000E+00  0.00000000E+00  0.00000000E+00
  0.00000000E+00  0.00000000E+00  0.00000000E+00
  0.00000000E+00  0.00000000E+00  0.00000000E+00
  0.00000000E+00  0.00000000E+00  0.00000000E+00
  0.00000000E+00  0.00000000E+00  0.00000000E+00
  0.00000000E+00  0.00000000E+00  0.00000000E+00
  0.00000000E+00  0.00000000E+00  0.00000000E+00
  0.00000000E+00  0.00000000E+00  0.00000000E+00
  0.00000000E+00  0.00000000E+00  0.00000000E+00
  0.00000000E+00  0.00000000E+00  0.00000000E+00
  0.00000000E+00  0.00000000E+00  0.00000000E+00
