Poscar file generated with pyiron       
   1.00000000000000     
     8.8999294169574057    0.0710407558226347   -0.2426490044068091
     0.2482672151411814    8.7859963011860049    0.5736743896274268
     0.2867972227518792   -0.6611356929621923   12.2698150993397359
   Cs   I    Pb
     4    12     4
Direct
  0.0675605675083104  0.3274740307375612  0.1949557156888344
  0.0450595950757203  0.3851283313737840  0.7007895054155400
  0.5645866882529318  0.8673709489072744  0.7130102438796138
  0.5449113762939646  0.8441560870873044  0.2165648289072386
  0.3220026835954526  0.0853487685702494  0.4363878494746321
  0.7743134592766123  0.6339182968593149  0.4803301847625975
  0.8183109621077022  0.1239375992695825  0.5215463884384027
  0.2743787822876453  0.5823196384816887  0.3946278532130228
  0.8036603379896261  0.6132084313001733  0.9346510432660020
  0.3254540897589743  0.0902758978438708  0.9799190071587133
  0.3048661429032348  0.5983113284031960  0.0225699799298944
  0.8233243677850783  0.1198316152510096  0.8915402588999171
  0.1388502022400411  0.8134321394446684  0.7067139552234100
  0.9706792419578407  0.8996345373655432  0.2054224821132859
  0.6387431770691673  0.3098301068008506  0.2097216906434354
  0.4734132680998913  0.4051821448479305  0.7085007429777080
  0.0509499811278462  0.8575695383645247  0.4564653652179357
  0.5511239239803961  0.3578340961214150  0.4584203947884511
  0.0596082003310665  0.8554092945574922  0.9565788765183739
  0.5603029233917223  0.3550373728452710  0.9584202121057266
 
  0.00000000E+00  0.00000000E+00  0.00000000E+00
  0.00000000E+00  0.00000000E+00  0.00000000E+00
  0.00000000E+00  0.00000000E+00  0.00000000E+00
  0.00000000E+00  0.00000000E+00  0.00000000E+00
  0.00000000E+00  0.00000000E+00  0.00000000E+00
  0.00000000E+00  0.00000000E+00  0.00000000E+00
  0.00000000E+00  0.00000000E+00  0.00000000E+00
  0.00000000E+00  0.00000000E+00  0.00000000E+00
  0.00000000E+00  0.00000000E+00  0.00000000E+00
  0.00000000E+00  0.00000000E+00  0.00000000E+00
  0.00000000E+00  0.00000000E+00  0.00000000E+00
  0.00000000E+00  0.00000000E+00  0.00000000E+00
  0.00000000E+00  0.00000000E+00  0.00000000E+00
  0.00000000E+00  0.00000000E+00  0.00000000E+00
  0.00000000E+00  0.00000000E+00  0.00000000E+00
  0.00000000E+00  0.00000000E+00  0.00000000E+00
  0.00000000E+00  0.00000000E+00  0.00000000E+00
  0.00000000E+00  0.00000000E+00  0.00000000E+00
  0.00000000E+00  0.00000000E+00  0.00000000E+00
  0.00000000E+00  0.00000000E+00  0.00000000E+00
