Poscar file generated with pyiron       
   1.00000000000000     
     8.8939772993843285    0.1499534201625066   -0.2644197053772221
     0.2170731400425303    8.8091765507198598    0.5352510556263815
     0.3160779882043634   -0.6442866078309381   12.2463669281320335
   Cs   I    Pb
     4    12     4
Direct
  0.0687453260895551  0.3249555591738610  0.2000382774566715
  0.0504521002003017  0.3615705958640267  0.7063703222845112
  0.5680923469961032  0.8443499268668426  0.7167252505438028
  0.5499402539164957  0.8429320581154436  0.2206115584748060
  0.3179103055741380  0.0810994585000996  0.4458782342926275
  0.7879323748066072  0.6115922347871402  0.4793220267896356
  0.8149299611089673  0.1024969828112549  0.5289534881958494
  0.2882083965765073  0.5779575015074329  0.3947264597458773
  0.8130416625530720  0.5940820071521314  0.9443390425146372
  0.3209495778980008  0.0855264061679342  0.9784306805344639
  0.3149734595300385  0.5915786152397537  0.0291669625015846
  0.8206483265133621  0.1001657447013637  0.8942525527855737
  0.1408346184718628  0.7912358057223469  0.7111189215361676
  0.9777074771313869  0.8948649413424913  0.2097535254515218
  0.6406263511845536  0.2881475042599274  0.2134406997206616
  0.4787655180781101  0.3988386894794331  0.7122931342099860
  0.0557788225001914  0.8442001842063879  0.4607460132541498
  0.5558674297779804  0.3445456316256421  0.4622278598832983
  0.0638893480566084  0.8420275186687087  0.9609425819081144
  0.5639713781390902  0.3420934783734343  0.9620791062796836
 
  0.00000000E+00  0.00000000E+00  0.00000000E+00
  0.00000000E+00  0.00000000E+00  0.00000000E+00
  0.00000000E+00  0.00000000E+00  0.00000000E+00
  0.00000000E+00  0.00000000E+00  0.00000000E+00
  0.00000000E+00  0.00000000E+00  0.00000000E+00
  0.00000000E+00  0.00000000E+00  0.00000000E+00
  0.00000000E+00  0.00000000E+00  0.00000000E+00
  0.00000000E+00  0.00000000E+00  0.00000000E+00
  0.00000000E+00  0.00000000E+00  0.00000000E+00
  0.00000000E+00  0.00000000E+00  0.00000000E+00
  0.00000000E+00  0.00000000E+00  0.00000000E+00
  0.00000000E+00  0.00000000E+00  0.00000000E+00
  0.00000000E+00  0.00000000E+00  0.00000000E+00
  0.00000000E+00  0.00000000E+00  0.00000000E+00
  0.00000000E+00  0.00000000E+00  0.00000000E+00
  0.00000000E+00  0.00000000E+00  0.00000000E+00
  0.00000000E+00  0.00000000E+00  0.00000000E+00
  0.00000000E+00  0.00000000E+00  0.00000000E+00
  0.00000000E+00  0.00000000E+00  0.00000000E+00
  0.00000000E+00  0.00000000E+00  0.00000000E+00
