Poscar file generated with pyiron       
   1.00000000000000     
     8.9072432864806839    0.1861504497536403   -0.1984896470633631
     0.1144481407189870    8.7919454730411655    0.4253296234578005
     0.3137796788131045   -0.7046332089927807   12.2577241725013302
   Cs   I    Pb
     4    12     4
Direct
  0.1057551004073331  0.3625752792839357  0.1950830223523071
  0.0820969908349841  0.4189668755374407  0.6919738926181325
  0.6055364091557154  0.9026597175907842  0.7219597070471574
  0.5841504699289730  0.8826128080882070  0.2205285439761920
  0.3415450990367510  0.1375211506589764  0.4338934321241182
  0.8198487771699111  0.6605541156608179  0.4848303076343305
  0.8394109046487723  0.1484444955601872  0.5229783299575393
  0.3196919515574942  0.6265169255221569  0.3933969401951172
  0.8363115431073705  0.6565748512124605  0.9343161966707819
  0.3773234539168111  0.1147855590487274  0.9839397537379968
  0.3402003204378823  0.6286620007078205  0.0240655640374881
  0.8778736465848413  0.1648612156330729  0.8965489440705906
  0.1809417586458062  0.8491041645325604  0.7061149760374880
  0.0084909839704261  0.9321769545857772  0.2068916923258905
  0.6783180108699355  0.3480997482987437  0.2107952852956783
  0.5089430728618667  0.4367008983941326  0.7115450209771480
  0.0873380094550882  0.8939699849747402  0.4571204234683888
  0.5867903283261938  0.3949524001082795  0.4600516775967452
  0.1016290304112881  0.8891383133504502  0.9568919384218522
  0.6011455098225872  0.3895723345681802  0.9598435097555190
 
  0.00000000E+00  0.00000000E+00  0.00000000E+00
  0.00000000E+00  0.00000000E+00  0.00000000E+00
  0.00000000E+00  0.00000000E+00  0.00000000E+00
  0.00000000E+00  0.00000000E+00  0.00000000E+00
  0.00000000E+00  0.00000000E+00  0.00000000E+00
  0.00000000E+00  0.00000000E+00  0.00000000E+00
  0.00000000E+00  0.00000000E+00  0.00000000E+00
  0.00000000E+00  0.00000000E+00  0.00000000E+00
  0.00000000E+00  0.00000000E+00  0.00000000E+00
  0.00000000E+00  0.00000000E+00  0.00000000E+00
  0.00000000E+00  0.00000000E+00  0.00000000E+00
  0.00000000E+00  0.00000000E+00  0.00000000E+00
  0.00000000E+00  0.00000000E+00  0.00000000E+00
  0.00000000E+00  0.00000000E+00  0.00000000E+00
  0.00000000E+00  0.00000000E+00  0.00000000E+00
  0.00000000E+00  0.00000000E+00  0.00000000E+00
  0.00000000E+00  0.00000000E+00  0.00000000E+00
  0.00000000E+00  0.00000000E+00  0.00000000E+00
  0.00000000E+00  0.00000000E+00  0.00000000E+00
  0.00000000E+00  0.00000000E+00  0.00000000E+00
