SYSTEM=ref_SCAN #jobname
PREC=Normal
ALGO=Normal
LREAL=.FALSE.
LWAVE=.FALSE.
LORBIT=11
ISMEAR=0
LASPH=.TRUE.
EDIFF=1e-05
ENCUT=600
SIGMA=0.05
LCHARG=.FALSE.
ISPIN=1
IVDW=0
METAGGA=SCAN
LMAXTAU=6
LMIXTAU=.TRUE.
NCORE=9
