SYSTEM=ref_HSESOC_HSESOC #jobname
PREC=Normal
ALGO=Normal
LREAL=.FALSE.
LWAVE=.FALSE.
LORBIT=11
ISMEAR=0
LASPH=.TRUE.
EDIFF=1e-05
ENCUT=600
SIGMA=0.05
LCHARG=.FALSE.
ISPIN=1
IVDW=0
KPAR=8
NCORE=1
LHFCALC=.TRUE.
HFSCREEN=0.2
PRECFOCK=FAST
NKRED=1
HFRCUT=0
LSORBIT=.TRUE.
LMAXMIX=4
SAXIS=0 0 1
GGA_COMPAT=.FALSE.
NBANDS=216
ICHARG=1
ISYM=-1
ISTART=1
