SYSTEM=ref_HSE_HSE #jobname
PREC=Normal
ALGO=Normal
LREAL=.FALSE.
LWAVE=.FALSE.
LORBIT=11
ISMEAR=0
LASPH=.TRUE.
EDIFF=1e-05
ENCUT=600
SIGMA=0.05
LCHARG=.FALSE.
ISPIN=1
IVDW=0
KPAR=4
NBANDS =108
NCORE=1
LHFCALC=.TRUE.
HFSCREEN=0.2
ISTART=1
