SYSTEM=ref_HSED3_HSE #jobname
PREC=Normal
ALGO=Normal
LREAL=.FALSE.
LWAVE=.FALSE.
LORBIT=11
ISMEAR=0
LASPH=.TRUE.
EDIFF=1e-05
ENCUT=600
SIGMA=0.05
LCHARG=.FALSE.
ISPIN=1
IVDW=12
NBANDS=108
LHFCALC=.TRUE.
HFSCREEN=0.2
NCORE=1
VDW_S8=2.31
VDW_A1=0.383
VDW_A2=5.685
ISTART=1
