SYSTEM=ref_RPA_HF_ssd #jobname
PREC=Normal
ALGO=Eigenval
LREAL=.FALSE.
LWAVE=.FALSE.
LORBIT=11
ISMEAR=0
LASPH=.TRUE.
EDIFF=1e-05
ENCUT=400
SIGMA=0.05
LCHARG=.FALSE.
ISPIN=1
IVDW=0
NELM=1
LHFCALC=.TRUE.
AEXX=1.0
NCORE=1
ISTART=1
ICHARG=1
NBANDS=108
