Poscar file generated with pyiron       
   1.00000000000000     
     4.7782144237137532    0.0818717577387090    0.2703975623181269
    -0.1991986841269010   10.4664428328289283    0.2638991602204840
    -0.9865887666595829   -0.4736705625834425   17.7803724357254183
   Cs   I    Pb
     4    12     4
Direct
  0.6433838637309858  0.0058847348890288  0.3458968265227863
  0.1432704738544731  0.8438437296391839  0.6894969728717349
  0.6447194363124209  0.5061252080535509  0.1892693368662595
  0.1444496049833895  0.3435410545491541  0.8460449225632205
  0.6462938620523641  0.2636827191822301  0.0163233072044197
  0.1466618504617155  0.5861835877273613  0.0189756284720655
  0.6411322913852470  0.7636733154004587  0.5193637974786192
  0.1420580978346571  0.0858892035580673  0.5159657214907699
  0.1470069411085224  0.9596319120570084  0.9045923813482948
  0.6461411454487683  0.8901203026451378  0.1306160861080829
  0.1416757008979855  0.4591918953918850  0.6307950875769838
  0.6413569876950365  0.3903571818769497  0.4046560517526764
  0.1444874192005898  0.2232481165004778  0.2326900598883664
  0.6445180823340019  0.6264527935875435  0.8025536814322797
  0.1439830232058196  0.7230826162184413  0.3028251057020447
  0.6434721055315556  0.1265041577308560  0.7326490491370816
  0.1463794225577330  0.0845869194347513  0.0788415820375965
  0.6470180131898059  0.7654038765928644  0.9562643889774685
  0.1410638609546916  0.5845734316275770  0.4567052026349107
  0.6416740763036781  0.2649201289248412  0.5787054142908360
 
  0.00000000E+00  0.00000000E+00  0.00000000E+00
  0.00000000E+00  0.00000000E+00  0.00000000E+00
  0.00000000E+00  0.00000000E+00  0.00000000E+00
  0.00000000E+00  0.00000000E+00  0.00000000E+00
  0.00000000E+00  0.00000000E+00  0.00000000E+00
  0.00000000E+00  0.00000000E+00  0.00000000E+00
  0.00000000E+00  0.00000000E+00  0.00000000E+00
  0.00000000E+00  0.00000000E+00  0.00000000E+00
  0.00000000E+00  0.00000000E+00  0.00000000E+00
  0.00000000E+00  0.00000000E+00  0.00000000E+00
  0.00000000E+00  0.00000000E+00  0.00000000E+00
  0.00000000E+00  0.00000000E+00  0.00000000E+00
  0.00000000E+00  0.00000000E+00  0.00000000E+00
  0.00000000E+00  0.00000000E+00  0.00000000E+00
  0.00000000E+00  0.00000000E+00  0.00000000E+00
  0.00000000E+00  0.00000000E+00  0.00000000E+00
  0.00000000E+00  0.00000000E+00  0.00000000E+00
  0.00000000E+00  0.00000000E+00  0.00000000E+00
  0.00000000E+00  0.00000000E+00  0.00000000E+00
  0.00000000E+00  0.00000000E+00  0.00000000E+00
