Poscar file generated with pyiron       
   1.00000000000000     
     4.7835386147729784   -0.0048625844939082    0.1854884600993520
    -0.0054255896143337   10.4710060592269460    0.2813654154455664
    -0.6873994995445097   -0.4726917981721375   17.7893167568239754
   Cs   I    Pb
     4    12     4
Direct
  0.7407222927035724  0.1105159412168569  0.3479112270195610
  0.2418907217838937  0.9476026409055883  0.6914183277007673
  0.7411533790616710  0.6109337001006240  0.1917259887025055
  0.2427850842855370  0.4487632971907232  0.8479742917458931
  0.7440456524371658  0.3694046926449678  0.0181068219788536
  0.2432143082323214  0.6915385370900099  0.0214949411532863
  0.7385398157771736  0.8670285475328228  0.5214698093069017
  0.2390299166555170  0.1890028193240969  0.5182369359322321
  0.2431849599030644  0.0647788790529990  0.9066659169000901
  0.7442253554189803  0.9955705688225680  0.1325149967259599
  0.2393846419056459  0.5623259875347295  0.6328052067990894
  0.7378602529981011  0.4937544526198488  0.4069789950324981
  0.2407925768667295  0.3281243415311823  0.2346472412669824
  0.7424882283732168  0.7312987723461051  0.8046763009193625
  0.2407679032475933  0.8278127642320673  0.3050320562257662
  0.7415929374249578  0.2301348609991271  0.7352627489290374
  0.2444015909904303  0.1901541661568112  0.0806472219292931
  0.7433454444006738  0.8702687756229628  0.9585085925556465
  0.2377527409346828  0.6882613157423306  0.4587442693508166
  0.7391692720186057  0.3677610489819282  0.5811398652455463
 
  0.00000000E+00  0.00000000E+00  0.00000000E+00
  0.00000000E+00  0.00000000E+00  0.00000000E+00
  0.00000000E+00  0.00000000E+00  0.00000000E+00
  0.00000000E+00  0.00000000E+00  0.00000000E+00
  0.00000000E+00  0.00000000E+00  0.00000000E+00
  0.00000000E+00  0.00000000E+00  0.00000000E+00
  0.00000000E+00  0.00000000E+00  0.00000000E+00
  0.00000000E+00  0.00000000E+00  0.00000000E+00
  0.00000000E+00  0.00000000E+00  0.00000000E+00
  0.00000000E+00  0.00000000E+00  0.00000000E+00
  0.00000000E+00  0.00000000E+00  0.00000000E+00
  0.00000000E+00  0.00000000E+00  0.00000000E+00
  0.00000000E+00  0.00000000E+00  0.00000000E+00
  0.00000000E+00  0.00000000E+00  0.00000000E+00
  0.00000000E+00  0.00000000E+00  0.00000000E+00
  0.00000000E+00  0.00000000E+00  0.00000000E+00
  0.00000000E+00  0.00000000E+00  0.00000000E+00
  0.00000000E+00  0.00000000E+00  0.00000000E+00
  0.00000000E+00  0.00000000E+00  0.00000000E+00
  0.00000000E+00  0.00000000E+00  0.00000000E+00
