Poscar file generated with pyiron       
   1.00000000000000     
     4.7789286995620612    0.0092378959486402    0.2600859029855764
    -0.0286306076953210   10.4706229193492497    0.2085034345762314
    -0.9648375934236328   -0.3538938908712020   17.7823806587337145
   Cs   I    Pb
     4    12     4
Direct
  0.6071608420494328  0.0102028355217253  0.3451670050542460
  0.1075223472586479  0.8476972299080016  0.6884520966335121
  0.6103023875286452  0.5101685382606910  0.1883510966949694
  0.1105661415133950  0.3481297445283501  0.8449441547680515
  0.6135934430136251  0.2681117716998728  0.0150428913377687
  0.1135913273811843  0.5905434596740317  0.0182917191520282
  0.6031030620565202  0.7673635420547024  0.5183158751864140
  0.1029652387975954  0.0897525764371386  0.5154231901223697
  0.1137958589873749  0.9638854367765618  0.9035949966688130
  0.6136518747699239  0.8947792234865983  0.1298796737849815
  0.1028695483424330  0.4634459935619614  0.6298327655301329
  0.6029295322232188  0.3940128529712250  0.4036127989994714
  0.1094880620943664  0.2274053475171343  0.2316161570241228
  0.6096200541741196  0.6309048672188323  0.8019588773437193
  0.1081559915916040  0.7274283518220482  0.3018488537532766
  0.6082851549573082  0.1305961888412356  0.7317728387737523
  0.1139991477067025  0.0890987347929424  0.0777642122002511
  0.6141442445751329  0.7695907225042156  0.9556811237446466
  0.1024978863115846  0.5885139429919879  0.4555255267895741
  0.6024995613927645  0.2689510876891766  0.5779726701472526
 
  0.00000000E+00  0.00000000E+00  0.00000000E+00
  0.00000000E+00  0.00000000E+00  0.00000000E+00
  0.00000000E+00  0.00000000E+00  0.00000000E+00
  0.00000000E+00  0.00000000E+00  0.00000000E+00
  0.00000000E+00  0.00000000E+00  0.00000000E+00
  0.00000000E+00  0.00000000E+00  0.00000000E+00
  0.00000000E+00  0.00000000E+00  0.00000000E+00
  0.00000000E+00  0.00000000E+00  0.00000000E+00
  0.00000000E+00  0.00000000E+00  0.00000000E+00
  0.00000000E+00  0.00000000E+00  0.00000000E+00
  0.00000000E+00  0.00000000E+00  0.00000000E+00
  0.00000000E+00  0.00000000E+00  0.00000000E+00
  0.00000000E+00  0.00000000E+00  0.00000000E+00
  0.00000000E+00  0.00000000E+00  0.00000000E+00
  0.00000000E+00  0.00000000E+00  0.00000000E+00
  0.00000000E+00  0.00000000E+00  0.00000000E+00
  0.00000000E+00  0.00000000E+00  0.00000000E+00
  0.00000000E+00  0.00000000E+00  0.00000000E+00
  0.00000000E+00  0.00000000E+00  0.00000000E+00
  0.00000000E+00  0.00000000E+00  0.00000000E+00
