Poscar file generated with pyiron       
   1.00000000000000     
     4.7846841380743275   -0.0539865099946734    0.1463122247962972
     0.1070899254936696   10.4674425089615539    0.3063283003813813
    -0.5539386982542137   -0.5165420540219814   17.7930788218780940
   Cs   I    Pb
     4    12     4
Direct
  0.7337554344162959  0.1121218393242898  0.3549480384032075
  0.2347851781282503  0.9498047135978366  0.6985878671439459
  0.7349826883920185  0.6137605791592406  0.1985758486047227
  0.2367914287224908  0.4509359423002394  0.8549819509192289
  0.7392596181183295  0.3722515439260313  0.0250942327149944
  0.2383808407290628  0.6943268696130785  0.0284330158663890
  0.7319029908459755  0.8687632292848120  0.5287566926565027
  0.2326629446853012  0.1907730515005201  0.5251686110125949
  0.2385845321239230  0.0673934089811345  0.9135844165133576
  0.7393835185274796  0.9984948389638650  0.1396036422681778
  0.2330216216395229  0.5641573667532496  0.6399186362913466
  0.7314138575686052  0.4957837039502101  0.4138171319888652
  0.2348616918195275  0.3306044244401623  0.2417863497279929
  0.7363563418658596  0.7333764598676190  0.8119371931844881
  0.2339820822771021  0.8296014607964229  0.3122847312105883
  0.7354612536721011  0.2323292416782622  0.7420380929045574
  0.2395918544944219  0.1928449835137274  0.0877483373112452
  0.7386070465625580  0.8731406866438108  0.9655468095607717
  0.2313404701632683  0.6900297804656484  0.4659773286599123
  0.7328855470945939  0.3699631579113253  0.5879181585558866
 
  0.00000000E+00  0.00000000E+00  0.00000000E+00
  0.00000000E+00  0.00000000E+00  0.00000000E+00
  0.00000000E+00  0.00000000E+00  0.00000000E+00
  0.00000000E+00  0.00000000E+00  0.00000000E+00
  0.00000000E+00  0.00000000E+00  0.00000000E+00
  0.00000000E+00  0.00000000E+00  0.00000000E+00
  0.00000000E+00  0.00000000E+00  0.00000000E+00
  0.00000000E+00  0.00000000E+00  0.00000000E+00
  0.00000000E+00  0.00000000E+00  0.00000000E+00
  0.00000000E+00  0.00000000E+00  0.00000000E+00
  0.00000000E+00  0.00000000E+00  0.00000000E+00
  0.00000000E+00  0.00000000E+00  0.00000000E+00
  0.00000000E+00  0.00000000E+00  0.00000000E+00
  0.00000000E+00  0.00000000E+00  0.00000000E+00
  0.00000000E+00  0.00000000E+00  0.00000000E+00
  0.00000000E+00  0.00000000E+00  0.00000000E+00
  0.00000000E+00  0.00000000E+00  0.00000000E+00
  0.00000000E+00  0.00000000E+00  0.00000000E+00
  0.00000000E+00  0.00000000E+00  0.00000000E+00
  0.00000000E+00  0.00000000E+00  0.00000000E+00
