Poscar file generated with pyiron       
   1.00000000000000     
     4.7813606356477738    0.0927013708814954    0.1724005551933901
    -0.2114790686478601   10.4642069687690498    0.2557705159493378
    -0.6310617501186235   -0.4414050242673644   17.7903697497012772
   Cs   I    Pb
     4    12     4
Direct
  0.7020012634355570  0.9901159221995141  0.3373851214582945
  0.2030896327678427  0.8270591908539899  0.6808940658126682
  0.7032884534621465  0.4903471390384646  0.1808741044790026
  0.2043109700625716  0.3272832217313170  0.8374694577872902
  0.7048672378863143  0.2475568108437377  0.0077029854177223
  0.2048710921269850  0.5695804631869691  0.0106552143657989
  0.7007558792183120  0.7471786941821261  0.5109288137009150
  0.2011060429037716  0.0689059003727156  0.5075751055403618
  0.2049808173552127  0.9434615241637531  0.8959984190220012
  0.7048372642167144  0.8735843109421313  0.1223542436013914
  0.2013111831870404  0.4425459849968070  0.6224259675780772
  0.7004327771706581  0.3735703491490652  0.3960885711427242
  0.2030723112923028  0.2073260435362035  0.2240769882676518
  0.7042015258651471  0.6099927431173620  0.7941676420725760
  0.2025972461026930  0.7071498352522886  0.2944130603117156
  0.7036955515356815  0.1096732067895581  0.7243227210134381
  0.2050241853179950  0.0682734458875842  0.0702759427978230
  0.7051100648687666  0.7489031091321113  0.9479643801452805
  0.2003198873795246  0.5680266817829550  0.4483400272081028
  0.7010540933470529  0.2481335479392062  0.5702853311379386
 
  0.00000000E+00  0.00000000E+00  0.00000000E+00
  0.00000000E+00  0.00000000E+00  0.00000000E+00
  0.00000000E+00  0.00000000E+00  0.00000000E+00
  0.00000000E+00  0.00000000E+00  0.00000000E+00
  0.00000000E+00  0.00000000E+00  0.00000000E+00
  0.00000000E+00  0.00000000E+00  0.00000000E+00
  0.00000000E+00  0.00000000E+00  0.00000000E+00
  0.00000000E+00  0.00000000E+00  0.00000000E+00
  0.00000000E+00  0.00000000E+00  0.00000000E+00
  0.00000000E+00  0.00000000E+00  0.00000000E+00
  0.00000000E+00  0.00000000E+00  0.00000000E+00
  0.00000000E+00  0.00000000E+00  0.00000000E+00
  0.00000000E+00  0.00000000E+00  0.00000000E+00
  0.00000000E+00  0.00000000E+00  0.00000000E+00
  0.00000000E+00  0.00000000E+00  0.00000000E+00
  0.00000000E+00  0.00000000E+00  0.00000000E+00
  0.00000000E+00  0.00000000E+00  0.00000000E+00
  0.00000000E+00  0.00000000E+00  0.00000000E+00
  0.00000000E+00  0.00000000E+00  0.00000000E+00
  0.00000000E+00  0.00000000E+00  0.00000000E+00
