Poscar file generated with pyiron       
   1.00000000000000     
     4.7816389474670276    0.0276583318317843    0.1990933027501680
    -0.0672024330592770   10.4721666981513444    0.2464315411859815
    -0.7347878320741812   -0.4245741641084070   17.7968912182749932
   Cs   I    Pb
     4    12     4
Direct
  0.6648115755192394  0.9907705115024941  0.3450634283012961
  0.1608014664677260  0.8287288087828802  0.6884586862354932
  0.6684752539550685  0.4904579341555760  0.1883270837922438
  0.1640377254895268  0.3281613450234047  0.8451734649592803
  0.6699701829237177  0.2472908137455569  0.0151452251514398
  0.1700515659929747  0.5697992309722392  0.0181659431812887
  0.6587708276613509  0.7489754711769566  0.5183435335989033
  0.1591603025870285  0.0713941434573132  0.5152161128095032
  0.1696861910384339  0.9433383364893428  0.9035903077719560
  0.6704718750481304  0.8739751427735851  0.1297486292208752
  0.1584771349860695  0.4446973519129814  0.6299155610997907
  0.6593195672791875  0.3754433133890912  0.4037735441699127
  0.1671194768865736  0.2075095603341511  0.2315091343462981
  0.6631055931001175  0.6109417814413334  0.8015768949229792
  0.1659310128645769  0.7077299395596183  0.3018034548129571
  0.6618891598434862  0.1114980657375160  0.7317365778828666
  0.1707393800674971  0.0684151484724048  0.0778836701762291
  0.6699805308097133  0.7489178084048791  0.9554393290980387
  0.1588086109009294  0.5698232330955271  0.4557207465294531
  0.6584780976460429  0.2502889355117510  0.5780061783226479
 
  0.00000000E+00  0.00000000E+00  0.00000000E+00
  0.00000000E+00  0.00000000E+00  0.00000000E+00
  0.00000000E+00  0.00000000E+00  0.00000000E+00
  0.00000000E+00  0.00000000E+00  0.00000000E+00
  0.00000000E+00  0.00000000E+00  0.00000000E+00
  0.00000000E+00  0.00000000E+00  0.00000000E+00
  0.00000000E+00  0.00000000E+00  0.00000000E+00
  0.00000000E+00  0.00000000E+00  0.00000000E+00
  0.00000000E+00  0.00000000E+00  0.00000000E+00
  0.00000000E+00  0.00000000E+00  0.00000000E+00
  0.00000000E+00  0.00000000E+00  0.00000000E+00
  0.00000000E+00  0.00000000E+00  0.00000000E+00
  0.00000000E+00  0.00000000E+00  0.00000000E+00
  0.00000000E+00  0.00000000E+00  0.00000000E+00
  0.00000000E+00  0.00000000E+00  0.00000000E+00
  0.00000000E+00  0.00000000E+00  0.00000000E+00
  0.00000000E+00  0.00000000E+00  0.00000000E+00
  0.00000000E+00  0.00000000E+00  0.00000000E+00
  0.00000000E+00  0.00000000E+00  0.00000000E+00
  0.00000000E+00  0.00000000E+00  0.00000000E+00
