Poscar file generated with pyiron       
   1.00000000000000     
     4.7873222290224238    0.0739267572163589    0.1113148756131646
    -0.1733261623248535   10.4639593110511839    0.3129054030425442
    -0.4112868579273212   -0.5498881208748599   17.7943756696477244
   Cs   I    Pb
     4    12     4
Direct
  0.6621742702955780  0.0461108050334870  0.3605522253975525
  0.1620287455531985  0.8819676023803177  0.7043597605206320
  0.6594354356337589  0.5453144079605473  0.2042953227970953
  0.1595839012368843  0.3808031724203067  0.8605909837377185
  0.6562877637338563  0.3005852865298630  0.0307003432498560
  0.1562527784079422  0.6226568966506665  0.0338849729656419
  0.6648231659631617  0.8041438077533104  0.5339900630833273
  0.1646894997049897  0.1258423075365066  0.5307000312028524
  0.1563190451017283  0.9962021628208295  0.9194415574106576
  0.6560574323741248  0.9275979757499682  0.1452950712388307
  0.1648729891624871  0.4989418107447807  0.6454585429826036
  0.6649424714023051  0.4304758426543387  0.4194837214882847
  0.1600019403005232  0.2625417879894192  0.2470167540101046
  0.6603662060057134  0.6635103675737585  0.8172857110213538
  0.1615959908326059  0.7631856312765484  0.3175437137843948
  0.6612781553915115  0.1648510666444369  0.7469796764311756
  0.1559690347016824  0.1222221589491519  0.0935910005047172
  0.6558602049833770  0.8016449345808834  0.9711772275572682
  0.1652144512129818  0.6250422563197540  0.4714251499720427
  0.6654968660845623  0.3045759161782977  0.5934650385555493
 
  0.00000000E+00  0.00000000E+00  0.00000000E+00
  0.00000000E+00  0.00000000E+00  0.00000000E+00
  0.00000000E+00  0.00000000E+00  0.00000000E+00
  0.00000000E+00  0.00000000E+00  0.00000000E+00
  0.00000000E+00  0.00000000E+00  0.00000000E+00
  0.00000000E+00  0.00000000E+00  0.00000000E+00
  0.00000000E+00  0.00000000E+00  0.00000000E+00
  0.00000000E+00  0.00000000E+00  0.00000000E+00
  0.00000000E+00  0.00000000E+00  0.00000000E+00
  0.00000000E+00  0.00000000E+00  0.00000000E+00
  0.00000000E+00  0.00000000E+00  0.00000000E+00
  0.00000000E+00  0.00000000E+00  0.00000000E+00
  0.00000000E+00  0.00000000E+00  0.00000000E+00
  0.00000000E+00  0.00000000E+00  0.00000000E+00
  0.00000000E+00  0.00000000E+00  0.00000000E+00
  0.00000000E+00  0.00000000E+00  0.00000000E+00
  0.00000000E+00  0.00000000E+00  0.00000000E+00
  0.00000000E+00  0.00000000E+00  0.00000000E+00
  0.00000000E+00  0.00000000E+00  0.00000000E+00
  0.00000000E+00  0.00000000E+00  0.00000000E+00
