Poscar file generated with pyiron       
   1.00000000000000     
     4.7858340000000004    0.0488770000000000    0.1969080000000000
    -0.1224080000000000   10.4572149999999997    0.3928830000000000
    -0.7193200000000000   -0.6859980000000000   17.7817140000000009
   Cs   I    Pb
     4    12     4
Direct
  0.6640218837022900  0.9994444483227056  0.3448852649478127
  0.1630888078300075  0.8328397855700231  0.6890736013646617
  0.6628036816542249  0.5008857074783606  0.1887570881936682
  0.1650157137222550  0.3334803792222871  0.8449884318359011
  0.6643870528878111  0.2566117188104471  0.0151208626367563
  0.1642217264082007  0.5781556456359098  0.0182597542266478
  0.6632954841554479  0.7544118134512772  0.5194552974486086
  0.1642902713635195  0.0754614132005145  0.5150732325705860
  0.1642452505058216  0.9510511426342703  0.9035200170763886
  0.6644850108587121  0.8836360812998194  0.1300777792444734
  0.1638000254624998  0.4483810838442679  0.6303091375854066
  0.6636156100554444  0.3818204028105967  0.4040752124323461
  0.1630353506553917  0.2176073492444317  0.2312546368901351
  0.6638255147907657  0.6163287074428894  0.8024796131354890
  0.1634515905644420  0.7163274815703744  0.3033811516989218
  0.6640170349231553  0.1156208450876051  0.7315711683430237
  0.1646234899088697  0.0779323909740484  0.0777889224585167
  0.6642519453846916  0.7569345457452314  0.9557574475706545
  0.1634762279158508  0.5758107878381153  0.4567110543661244
  0.6643784575814919  0.2542974488177947  0.5778460556554847
 
  0.00000000E+00  0.00000000E+00  0.00000000E+00
  0.00000000E+00  0.00000000E+00  0.00000000E+00
  0.00000000E+00  0.00000000E+00  0.00000000E+00
  0.00000000E+00  0.00000000E+00  0.00000000E+00
  0.00000000E+00  0.00000000E+00  0.00000000E+00
  0.00000000E+00  0.00000000E+00  0.00000000E+00
  0.00000000E+00  0.00000000E+00  0.00000000E+00
  0.00000000E+00  0.00000000E+00  0.00000000E+00
  0.00000000E+00  0.00000000E+00  0.00000000E+00
  0.00000000E+00  0.00000000E+00  0.00000000E+00
  0.00000000E+00  0.00000000E+00  0.00000000E+00
  0.00000000E+00  0.00000000E+00  0.00000000E+00
  0.00000000E+00  0.00000000E+00  0.00000000E+00
  0.00000000E+00  0.00000000E+00  0.00000000E+00
  0.00000000E+00  0.00000000E+00  0.00000000E+00
  0.00000000E+00  0.00000000E+00  0.00000000E+00
  0.00000000E+00  0.00000000E+00  0.00000000E+00
  0.00000000E+00  0.00000000E+00  0.00000000E+00
  0.00000000E+00  0.00000000E+00  0.00000000E+00
  0.00000000E+00  0.00000000E+00  0.00000000E+00
