Poscar file generated with pyiron       
   1.00000000000000     
     4.7810564930393014    0.0484702455563552    0.2397413416513840
    -0.1148187523540191   10.4693899545239457    0.2295950897769310
    -0.8899464615400178   -0.4113983620376482   17.7839918031297977
   Cs   I    Pb
     4    12     4
Direct
  0.6206816586396431  0.9964194019873603  0.3474280721631928
  0.1206148277434980  0.8332403967095646  0.6911212199108213
  0.6233224148848618  0.4961556585984607  0.1909887780617187
  0.1231089598507983  0.3328890317582323  0.8473724054178766
  0.6268685699709039  0.2526346621318251  0.0174096238553456
  0.1269562877093967  0.5750014691603456  0.0207493655094150
  0.6183609928539864  0.7539331491681973  0.5210397745228071
  0.1183406775693017  0.0758281442131843  0.5175424999083093
  0.1271600366598575  0.9484807788487010  0.9061471636828298
  0.6270791398988528  0.8796464602801508  0.1322901467421130
  0.1182237316556860  0.4491551651679257  0.6323734155188828
  0.6184628866055462  0.3808087758745358  0.4062926275262693
  0.1229197334436530  0.2133390689718123  0.2338728889299667
  0.6224221649489530  0.6155736682785592  0.8042508172868538
  0.1216823611476071  0.7134453986490908  0.3045682170434266
  0.6216116201181870  0.1159374150298669  0.7340631756671605
  0.1272756259147909  0.0740819464929619  0.0802245505258238
  0.6272332805742963  0.7540683072419871  0.9581683142505979
  0.1183164793270577  0.5749454616484145  0.4584197629203674
  0.6182159911374023  0.2547265914779452  0.5803147332384648
 
  0.00000000E+00  0.00000000E+00  0.00000000E+00
  0.00000000E+00  0.00000000E+00  0.00000000E+00
  0.00000000E+00  0.00000000E+00  0.00000000E+00
  0.00000000E+00  0.00000000E+00  0.00000000E+00
  0.00000000E+00  0.00000000E+00  0.00000000E+00
  0.00000000E+00  0.00000000E+00  0.00000000E+00
  0.00000000E+00  0.00000000E+00  0.00000000E+00
  0.00000000E+00  0.00000000E+00  0.00000000E+00
  0.00000000E+00  0.00000000E+00  0.00000000E+00
  0.00000000E+00  0.00000000E+00  0.00000000E+00
  0.00000000E+00  0.00000000E+00  0.00000000E+00
  0.00000000E+00  0.00000000E+00  0.00000000E+00
  0.00000000E+00  0.00000000E+00  0.00000000E+00
  0.00000000E+00  0.00000000E+00  0.00000000E+00
  0.00000000E+00  0.00000000E+00  0.00000000E+00
  0.00000000E+00  0.00000000E+00  0.00000000E+00
  0.00000000E+00  0.00000000E+00  0.00000000E+00
  0.00000000E+00  0.00000000E+00  0.00000000E+00
  0.00000000E+00  0.00000000E+00  0.00000000E+00
  0.00000000E+00  0.00000000E+00  0.00000000E+00
