Poscar file generated with pyiron       
   1.00000000000000     
     4.7843600000000004    0.0213250000000000    0.1417640000000000
    -0.0532820000000000   10.4760080000000002    0.1904390000000000
    -0.5280490000000000   -0.3320780000000000   17.7977209999999992
   Cs   I    Pb
     4    12     4
Direct
  0.6311688212054776  0.0609676880183301  0.3630002586986194
  0.1311657776094179  0.9007319893645374  0.7062307505281566
  0.6301093968601208  0.5611839258958469  0.2061241904833224
  0.1301988321121215  0.4006251115655104  0.8629925286946687
  0.6286289348692478  0.3196083645254078  0.0331381608265389
  0.1290429966682964  0.6425979123230476  0.0360967127559420
  0.6319591086257788  0.8194670525029366  0.5362334065712773
  0.1323513300367267  0.1421871247996833  0.5329379327082293
  0.1289514080692555  0.0160122936834597  0.9215983410967681
  0.6285417211234972  0.9462204739056759  0.1477457680083347
  0.1325157836355899  0.5154040677620770  0.6476612158545407
  0.6317004950337477  0.4462164595442673  0.4215389334212531
  0.1303015922809578  0.2786227696375221  0.2500027317527014
  0.6307057966383383  0.6833322478088135  0.8193947774391432
  0.1306359372893766  0.7783213343994788  0.3193586080298374
  0.6309441915813920  0.1831556230055895  0.7498182911748614
  0.1284300513530781  0.1406533114873625  0.0960037332725534
  0.6289710078467294  0.8215720361045982  0.9733211258304806
  0.1319731953889161  0.6404524455944056  0.4734663320962298
  0.6325918032530780  0.3211200616971226  0.5957351971879348
 
  0.00000000E+00  0.00000000E+00  0.00000000E+00
  0.00000000E+00  0.00000000E+00  0.00000000E+00
  0.00000000E+00  0.00000000E+00  0.00000000E+00
  0.00000000E+00  0.00000000E+00  0.00000000E+00
  0.00000000E+00  0.00000000E+00  0.00000000E+00
  0.00000000E+00  0.00000000E+00  0.00000000E+00
  0.00000000E+00  0.00000000E+00  0.00000000E+00
  0.00000000E+00  0.00000000E+00  0.00000000E+00
  0.00000000E+00  0.00000000E+00  0.00000000E+00
  0.00000000E+00  0.00000000E+00  0.00000000E+00
  0.00000000E+00  0.00000000E+00  0.00000000E+00
  0.00000000E+00  0.00000000E+00  0.00000000E+00
  0.00000000E+00  0.00000000E+00  0.00000000E+00
  0.00000000E+00  0.00000000E+00  0.00000000E+00
  0.00000000E+00  0.00000000E+00  0.00000000E+00
  0.00000000E+00  0.00000000E+00  0.00000000E+00
  0.00000000E+00  0.00000000E+00  0.00000000E+00
  0.00000000E+00  0.00000000E+00  0.00000000E+00
  0.00000000E+00  0.00000000E+00  0.00000000E+00
  0.00000000E+00  0.00000000E+00  0.00000000E+00
