Poscar file generated with pyiron       
   1.00000000000000     
     4.7849103981393553    0.0452596178776728    0.1525911234321089
    -0.1175311355674113   10.4586877209200502    0.4336882456344357
    -0.5612105905057445   -0.7420943507263652   17.7916159069914777
   Cs   I    Pb
     4    12     4
Direct
  0.6575863446659977  0.0026974681483337  0.3424642086190514
  0.1571221416354663  0.8372195529655174  0.6864261707912307
  0.6566145237996449  0.5047845571662800  0.1863632170486168
  0.1566870485499386  0.3387630591632517  0.8425541851259803
  0.6566030136343223  0.2624813632338313  0.0128112604992481
  0.1565980362025478  0.5839506053199685  0.0163306934628605
  0.6577980575809826  0.7577610441108946  0.5164736574489951
  0.1590847402363506  0.0792507183502328  0.5126828422171815
  0.1564347363950177  0.9567399574448932  0.9013388863116063
  0.6568675143891671  0.8889694317824676  0.1274297355665804
  0.1593069260990169  0.4526249684782133  0.6275116589824994
  0.6577006643171385  0.3850608629497669  0.4013930856055058
  0.1569501193543281  0.2215131238870283  0.2292058090554657
  0.6567626885170844  0.6216941812440638  0.8002367056044453
  0.1571916086349567  0.7199218119498880  0.3003779791775412
  0.6571937321419234  0.1203388041715261  0.7292451638391747
  0.1567728275592569  0.0835103417555482  0.0753594153652740
  0.6565569638420405  0.7624360990237127  0.9535244199934375
  0.1576467748322692  0.5791982597692943  0.4536928736004371
  0.6596357451300747  0.2582183019406929  0.5753603632758503
 
  0.00000000E+00  0.00000000E+00  0.00000000E+00
  0.00000000E+00  0.00000000E+00  0.00000000E+00
  0.00000000E+00  0.00000000E+00  0.00000000E+00
  0.00000000E+00  0.00000000E+00  0.00000000E+00
  0.00000000E+00  0.00000000E+00  0.00000000E+00
  0.00000000E+00  0.00000000E+00  0.00000000E+00
  0.00000000E+00  0.00000000E+00  0.00000000E+00
  0.00000000E+00  0.00000000E+00  0.00000000E+00
  0.00000000E+00  0.00000000E+00  0.00000000E+00
  0.00000000E+00  0.00000000E+00  0.00000000E+00
  0.00000000E+00  0.00000000E+00  0.00000000E+00
  0.00000000E+00  0.00000000E+00  0.00000000E+00
  0.00000000E+00  0.00000000E+00  0.00000000E+00
  0.00000000E+00  0.00000000E+00  0.00000000E+00
  0.00000000E+00  0.00000000E+00  0.00000000E+00
  0.00000000E+00  0.00000000E+00  0.00000000E+00
  0.00000000E+00  0.00000000E+00  0.00000000E+00
  0.00000000E+00  0.00000000E+00  0.00000000E+00
  0.00000000E+00  0.00000000E+00  0.00000000E+00
  0.00000000E+00  0.00000000E+00  0.00000000E+00
