Poscar file generated with pyiron       
   1.00000000000000     
     4.7806848207296175   -0.0264155506080815    0.2240072152002967
     0.0420800576477701   10.4733867665882876    0.3104623901922682
    -0.8351557985885237   -0.5282176539744643   17.7791769562299891
   Cs   I    Pb
     4    12     4
Direct
  0.6473950229012254  0.0100305784805414  0.3424993948109269
  0.1445136167872017  0.8477256795115968  0.6860045703410685
  0.6489827646932975  0.5095415067676381  0.1859335041499290
  0.1462874500749215  0.3475668290723086  0.8425594452873415
  0.6504228273812960  0.2673448637056565  0.0125488358450452
  0.1501692307490253  0.5897117693676167  0.0158303581399043
  0.6434492657538868  0.7680506183729300  0.5156057336463181
  0.1431887925438821  0.0903961953993335  0.5126419822127729
  0.1502397661609977  0.9629688971465351  0.9010091083229798
  0.6505687832546529  0.8940264088379406  0.1272891580843452
  0.1429242953154671  0.4638006219535105  0.6273171310394613
  0.6433961675379481  0.3944599061388740  0.4010059167563877
  0.1484669830987880  0.2270317976826538  0.2290996515253492
  0.6462940642959636  0.6301430403536742  0.7991721914203010
  0.1477792436874875  0.7273907649144018  0.2990795013101787
  0.6449714131267847  0.1304893494522433  0.7291217759173757
  0.1510957461714938  0.0882796964209496  0.0752452789512559
  0.6502131093198976  0.7686451391345686  0.9531037281177033
  0.1434877046831219  0.5890047593579038  0.4529574206811564
  0.6427663625218886  0.2693446532287814  0.5753381383661011
 
  0.00000000E+00  0.00000000E+00  0.00000000E+00
  0.00000000E+00  0.00000000E+00  0.00000000E+00
  0.00000000E+00  0.00000000E+00  0.00000000E+00
  0.00000000E+00  0.00000000E+00  0.00000000E+00
  0.00000000E+00  0.00000000E+00  0.00000000E+00
  0.00000000E+00  0.00000000E+00  0.00000000E+00
  0.00000000E+00  0.00000000E+00  0.00000000E+00
  0.00000000E+00  0.00000000E+00  0.00000000E+00
  0.00000000E+00  0.00000000E+00  0.00000000E+00
  0.00000000E+00  0.00000000E+00  0.00000000E+00
  0.00000000E+00  0.00000000E+00  0.00000000E+00
  0.00000000E+00  0.00000000E+00  0.00000000E+00
  0.00000000E+00  0.00000000E+00  0.00000000E+00
  0.00000000E+00  0.00000000E+00  0.00000000E+00
  0.00000000E+00  0.00000000E+00  0.00000000E+00
  0.00000000E+00  0.00000000E+00  0.00000000E+00
  0.00000000E+00  0.00000000E+00  0.00000000E+00
  0.00000000E+00  0.00000000E+00  0.00000000E+00
  0.00000000E+00  0.00000000E+00  0.00000000E+00
  0.00000000E+00  0.00000000E+00  0.00000000E+00
