Poscar file generated with pyiron       
   1.00000000000000     
     4.7864376574324732    0.0598340616642008    0.1454295686728166
    -0.1482467578723219   10.4616896850958181    0.4214163917764978
    -0.5403524620391158   -0.7229775726142054   17.7820549231078679
   Cs   I    Pb
     4    12     4
Direct
  0.6586325220203383  0.0065946166736210  0.3433323464796317
  0.1614907279258650  0.8406111477242144  0.6872873230569180
  0.6583937542528471  0.5073010166522505  0.1872497887040241
  0.1625830805382979  0.3410751967163364  0.8434236784176266
  0.6615834369386565  0.2638577315948828  0.0135941427710942
  0.1603473483367224  0.5853843879031739  0.0170899645885605
  0.6587149052281830  0.7619929389588861  0.5172856677042079
  0.1591000828927771  0.0832480009838074  0.5134885458794793
  0.1614362313563883  0.9584508176497837  0.9021940397864997
  0.6605858368509142  0.8905026984916371  0.1283343778831883
  0.1596586007476515  0.4566297890726354  0.6283664031417940
  0.6580317445882672  0.3891658727200054  0.4022292931767584
  0.1586693791466884  0.2241784740099773  0.2298852529050475
  0.6616289218514203  0.6240765677626161  0.8008099257143777
  0.1581238092022629  0.7235409433570358  0.3011229759888062
  0.6622678573697822  0.1235818006036161  0.7299242341780653
  0.1611056957276601  0.0849836124064343  0.0762912344784469
  0.6610347760577535  0.7640898938702609  0.9543032978657212
  0.1580155756842689  0.5833299844885463  0.4545605012220103
  0.6596070825711668  0.2621760803511146  0.5761213148637997
 
  0.00000000E+00  0.00000000E+00  0.00000000E+00
  0.00000000E+00  0.00000000E+00  0.00000000E+00
  0.00000000E+00  0.00000000E+00  0.00000000E+00
  0.00000000E+00  0.00000000E+00  0.00000000E+00
  0.00000000E+00  0.00000000E+00  0.00000000E+00
  0.00000000E+00  0.00000000E+00  0.00000000E+00
  0.00000000E+00  0.00000000E+00  0.00000000E+00
  0.00000000E+00  0.00000000E+00  0.00000000E+00
  0.00000000E+00  0.00000000E+00  0.00000000E+00
  0.00000000E+00  0.00000000E+00  0.00000000E+00
  0.00000000E+00  0.00000000E+00  0.00000000E+00
  0.00000000E+00  0.00000000E+00  0.00000000E+00
  0.00000000E+00  0.00000000E+00  0.00000000E+00
  0.00000000E+00  0.00000000E+00  0.00000000E+00
  0.00000000E+00  0.00000000E+00  0.00000000E+00
  0.00000000E+00  0.00000000E+00  0.00000000E+00
  0.00000000E+00  0.00000000E+00  0.00000000E+00
  0.00000000E+00  0.00000000E+00  0.00000000E+00
  0.00000000E+00  0.00000000E+00  0.00000000E+00
  0.00000000E+00  0.00000000E+00  0.00000000E+00
