Poscar file generated with pyiron       
   1.00000000000000     
     4.7845060000000004   -0.0113280000000000    0.1704390000000000
     0.0184610000000000   10.4650219999999994    0.2629710000000000
    -0.6369089999999999   -0.4496580000000000   17.7926250000000010
   Cs   I    Pb
     4    12     4
Direct
  0.7341886624603760  0.1128223630442946  0.3514265358786730
  0.2347922669950719  0.9497890276215770  0.6950478372575120
  0.7349194112915924  0.6139280491232597  0.1951400050777110
  0.2363215381943036  0.4510355315643864  0.8515735080531286
  0.7375910625854516  0.3723089180071923  0.0216753120258559
  0.2377655091223900  0.6941620604888783  0.0249453868441591
  0.7324627995120139  0.8692062921025396  0.5251543274452146
  0.2328423499906975  0.1910375685315557  0.5217072457193552
  0.2378697578542202  0.0675248838455715  0.9102074013259482
  0.7373633615425490  0.9986281268845900  0.1362846817500056
  0.2335697899122522  0.5646403384397800  0.6364153412350362
  0.7326573895709672  0.4960515922023561  0.4103069619202344
  0.2349412285680685  0.3310184545266921  0.2383226396415026
  0.7362011009174552  0.7337370961614269  0.8084620634873474
  0.2342651904612012  0.8302998333700273  0.3087988975236513
  0.7355346090242918  0.2324420773161364  0.7385377555941375
  0.2374734746890752  0.1931691032289677  0.0843050582000373
  0.7375649147114558  0.8730468874975941  0.9621128048810874
  0.2323488143908889  0.6903651657889398  0.4623977843505074
  0.7335226850997358  0.3701259648503950  0.5843935288078015
 
  0.00000000E+00  0.00000000E+00  0.00000000E+00
  0.00000000E+00  0.00000000E+00  0.00000000E+00
  0.00000000E+00  0.00000000E+00  0.00000000E+00
  0.00000000E+00  0.00000000E+00  0.00000000E+00
  0.00000000E+00  0.00000000E+00  0.00000000E+00
  0.00000000E+00  0.00000000E+00  0.00000000E+00
  0.00000000E+00  0.00000000E+00  0.00000000E+00
  0.00000000E+00  0.00000000E+00  0.00000000E+00
  0.00000000E+00  0.00000000E+00  0.00000000E+00
  0.00000000E+00  0.00000000E+00  0.00000000E+00
  0.00000000E+00  0.00000000E+00  0.00000000E+00
  0.00000000E+00  0.00000000E+00  0.00000000E+00
  0.00000000E+00  0.00000000E+00  0.00000000E+00
  0.00000000E+00  0.00000000E+00  0.00000000E+00
  0.00000000E+00  0.00000000E+00  0.00000000E+00
  0.00000000E+00  0.00000000E+00  0.00000000E+00
  0.00000000E+00  0.00000000E+00  0.00000000E+00
  0.00000000E+00  0.00000000E+00  0.00000000E+00
  0.00000000E+00  0.00000000E+00  0.00000000E+00
  0.00000000E+00  0.00000000E+00  0.00000000E+00
