Poscar file generated with pyiron       
   1.00000000000000     
     4.7821742682328638    0.0565984952990970    0.2064762135664169
    -0.1395409251191804   10.4612470911725204    0.3607164651609377
    -0.7697717098815886   -0.6217234211762329   17.7916374915745941
   Cs   I    Pb
     4    12     4
Direct
  0.6695294029392752  0.9936977521459919  0.3448143921489918
  0.1703813880764246  0.8290226696278281  0.6885549135003587
  0.6694396658754160  0.4939892826715402  0.1883125789806077
  0.1700998877316057  0.3296169216910814  0.8447652030490798
  0.6703771513607639  0.2515869528994601  0.0147856277478545
  0.1702411249267784  0.5732248553164389  0.0184282263397330
  0.6703544681006336  0.7501975001932906  0.5184888168336171
  0.1700265287366769  0.0720335550914404  0.5149400466735180
  0.1701501926593741  0.9462051469755255  0.9034948763226579
  0.6704562355062097  0.8782838642173533  0.1294796572078367
  0.1705649319839086  0.4452438149871125  0.6296654215150997
  0.6697087544906509  0.3771942221359636  0.4035566724428766
  0.1695288841616101  0.2111763694847269  0.2312303884666838
  0.6705457391985620  0.6124053499510153  0.8020756932541346
  0.1692833388591657  0.7106824070418516  0.3020482911161882
  0.6706251716422446  0.1121061771080820  0.7313424720878454
  0.1704626782709523  0.0726291327375137  0.0774200297335432
  0.6703407982879940  0.7518836164016077  0.9556580437431392
  0.1699885463948369  0.5713958447085844  0.4557304814498441
  0.6701632979864796  0.2508537432837634  0.5775894888001099
 
  0.00000000E+00  0.00000000E+00  0.00000000E+00
  0.00000000E+00  0.00000000E+00  0.00000000E+00
  0.00000000E+00  0.00000000E+00  0.00000000E+00
  0.00000000E+00  0.00000000E+00  0.00000000E+00
  0.00000000E+00  0.00000000E+00  0.00000000E+00
  0.00000000E+00  0.00000000E+00  0.00000000E+00
  0.00000000E+00  0.00000000E+00  0.00000000E+00
  0.00000000E+00  0.00000000E+00  0.00000000E+00
  0.00000000E+00  0.00000000E+00  0.00000000E+00
  0.00000000E+00  0.00000000E+00  0.00000000E+00
  0.00000000E+00  0.00000000E+00  0.00000000E+00
  0.00000000E+00  0.00000000E+00  0.00000000E+00
  0.00000000E+00  0.00000000E+00  0.00000000E+00
  0.00000000E+00  0.00000000E+00  0.00000000E+00
  0.00000000E+00  0.00000000E+00  0.00000000E+00
  0.00000000E+00  0.00000000E+00  0.00000000E+00
  0.00000000E+00  0.00000000E+00  0.00000000E+00
  0.00000000E+00  0.00000000E+00  0.00000000E+00
  0.00000000E+00  0.00000000E+00  0.00000000E+00
  0.00000000E+00  0.00000000E+00  0.00000000E+00
