Poscar file generated with pyiron       
   1.00000000000000     
     4.7853416244077360   -0.0115047746187615    0.1882504340388101
     0.0191801603243392   10.4661909757009894    0.2531565793164133
    -0.6990666188282699   -0.4296798497256872   17.7949717534454415
   Cs   I    Pb
     4    12     4
Direct
  0.6947828833047853  0.0725329577023596  0.3545585467577820
  0.1923845249437257  0.9077579127263461  0.6981376312270610
  0.6954246593428431  0.5739284245024734  0.1983286325673973
  0.1933342444880099  0.4091701857500061  0.8546320722625421
  0.6949043132643542  0.3322158000548212  0.0249148995610911
  0.1948214337831757  0.6539254789811030  0.0283842031559741
  0.6925374007668653  0.8284077716089421  0.5280905538569582
  0.1929070281806946  0.1502208216533699  0.5248205641102972
  0.1946093804355474  0.0267099192899059  0.9135300105146191
  0.6952867327091021  0.9587718719534091  0.1395318838275267
  0.1926301335678977  0.5238505452192115  0.6395360460385638
  0.6928658288573756  0.4554434162827219  0.4134087038061933
  0.1951774433402290  0.2910461885341913  0.2414497481922041
  0.6929098823253118  0.6921510785643741  0.8122045870861920
  0.1948005959499269  0.7897605755501970  0.3119507699562308
  0.6926898894057233  0.1908574582882722  0.7413599888137584
  0.1951070216049905  0.1532113404712969  0.0876273349488728
  0.6947535335909163  0.8326955673331717  0.9656504375643266
  0.1927932975073859  0.6497246907701714  0.4654955107292150
  0.6926156564457207  0.3291153562943233  0.5875879436623883
 
  0.00000000E+00  0.00000000E+00  0.00000000E+00
  0.00000000E+00  0.00000000E+00  0.00000000E+00
  0.00000000E+00  0.00000000E+00  0.00000000E+00
  0.00000000E+00  0.00000000E+00  0.00000000E+00
  0.00000000E+00  0.00000000E+00  0.00000000E+00
  0.00000000E+00  0.00000000E+00  0.00000000E+00
  0.00000000E+00  0.00000000E+00  0.00000000E+00
  0.00000000E+00  0.00000000E+00  0.00000000E+00
  0.00000000E+00  0.00000000E+00  0.00000000E+00
  0.00000000E+00  0.00000000E+00  0.00000000E+00
  0.00000000E+00  0.00000000E+00  0.00000000E+00
  0.00000000E+00  0.00000000E+00  0.00000000E+00
  0.00000000E+00  0.00000000E+00  0.00000000E+00
  0.00000000E+00  0.00000000E+00  0.00000000E+00
  0.00000000E+00  0.00000000E+00  0.00000000E+00
  0.00000000E+00  0.00000000E+00  0.00000000E+00
  0.00000000E+00  0.00000000E+00  0.00000000E+00
  0.00000000E+00  0.00000000E+00  0.00000000E+00
  0.00000000E+00  0.00000000E+00  0.00000000E+00
  0.00000000E+00  0.00000000E+00  0.00000000E+00
