Poscar file generated with pyiron       
   1.00000000000000     
     4.7880614694001951   -0.0407078635490487   -0.0810500807809901
     0.0931584918789238   10.4672490836161156    0.2514540669335605
     0.2925841947134864   -0.4363468508837230   17.8029247318386190
   Cs   I    Pb
     4    12     4
Direct
  0.6726749111030078  0.0125333566658023  0.3414617364809233
  0.1737710663114188  0.8498974096888792  0.6853433659240902
  0.6709299275409770  0.5138849531789227  0.1852689595547710
  0.1719852213523329  0.3505172337359415  0.8416430200829278
  0.6685676226706828  0.2714324934313121  0.0122151665537021
  0.1689086695192867  0.5939644555723442  0.0147873267655784
  0.6743363260012833  0.7691008102716947  0.5154330696389935
  0.1749559811769351  0.0907189658856200  0.5116944417012737
  0.1691619826968690  0.9671870350748559  0.9004568290650961
  0.6682884908331157  0.8979357554380878  0.1262591186913889
  0.1739249556099246  0.4641189484685298  0.6266274872426514
  0.6735723996089483  0.3965428418364134  0.4004322008802578
  0.1719204832089288  0.2309689800918189  0.2285900226431948
  0.6722254338918409  0.6331018720438125  0.7984308076825936
  0.1724939480642789  0.7297832712074447  0.2990225740414108
  0.6729914182584594  0.1324661187119900  0.7284813910691783
  0.1681210876399484  0.0925098735010674  0.0746852559379056
  0.6683942073589736  0.7727514668442707  0.9520556808401256
  0.1741213274035772  0.5905530490586713  0.4527300062467299
  0.6743142802447558  0.2699292893547338  0.5743764396705358
 
  0.00000000E+00  0.00000000E+00  0.00000000E+00
  0.00000000E+00  0.00000000E+00  0.00000000E+00
  0.00000000E+00  0.00000000E+00  0.00000000E+00
  0.00000000E+00  0.00000000E+00  0.00000000E+00
  0.00000000E+00  0.00000000E+00  0.00000000E+00
  0.00000000E+00  0.00000000E+00  0.00000000E+00
  0.00000000E+00  0.00000000E+00  0.00000000E+00
  0.00000000E+00  0.00000000E+00  0.00000000E+00
  0.00000000E+00  0.00000000E+00  0.00000000E+00
  0.00000000E+00  0.00000000E+00  0.00000000E+00
  0.00000000E+00  0.00000000E+00  0.00000000E+00
  0.00000000E+00  0.00000000E+00  0.00000000E+00
  0.00000000E+00  0.00000000E+00  0.00000000E+00
  0.00000000E+00  0.00000000E+00  0.00000000E+00
  0.00000000E+00  0.00000000E+00  0.00000000E+00
  0.00000000E+00  0.00000000E+00  0.00000000E+00
  0.00000000E+00  0.00000000E+00  0.00000000E+00
  0.00000000E+00  0.00000000E+00  0.00000000E+00
  0.00000000E+00  0.00000000E+00  0.00000000E+00
  0.00000000E+00  0.00000000E+00  0.00000000E+00
