Poscar file generated with pyiron       
   1.00000000000000     
     4.7824150000000003    0.0518050000000000    0.1237190000000000
    -0.1194980000000000   10.4686470000000007    0.2036320000000000
    -0.4709490000000000   -0.3518520000000000   17.8089790000000008
   Cs   I    Pb
     4    12     4
Direct
  0.7429010331962473  0.1161190011302153  0.3511503671157996
  0.2433839739493351  0.9534261731499569  0.6943778765350785
  0.7441705999187747  0.6166435276639248  0.1944352380470420
  0.2439369771877651  0.4541763866522359  0.8512160455669715
  0.7437916539758334  0.3746477762352498  0.0213183555215934
  0.2437215196355780  0.6970895461209778  0.0243564703444505
  0.7433784436605393  0.8730026438158163  0.5242080248028813
  0.2436698833072555  0.1951560505103416  0.5213182688491074
  0.2436300989809865  0.0704743050260817  0.9096815407973722
  0.7438623417600780  0.0009289562408910  0.1358547522083029
  0.2436549957288605  0.5688383478203036  0.6358419885181235
  0.7434928012417146  0.4994389565067365  0.4096832851311802
  0.2432131198066756  0.3336417790935542  0.2378176996887902
  0.7430640574139247  0.7369874151751219  0.8079341439582350
  0.2436648869013993  0.8331380028653470  0.3080134469390003
  0.7437760201255159  0.2364384214607185  0.7379019967043803
  0.2438584211005690  0.1954336965460470  0.0839182767060578
  0.7439105061021536  0.8760866277445984  0.9616190369034783
  0.2434017016094714  0.6938981801274906  0.4616503125139602
  0.7438130553455338  0.3743176542044750  0.5839347111365356
 
  0.00000000E+00  0.00000000E+00  0.00000000E+00
  0.00000000E+00  0.00000000E+00  0.00000000E+00
  0.00000000E+00  0.00000000E+00  0.00000000E+00
  0.00000000E+00  0.00000000E+00  0.00000000E+00
  0.00000000E+00  0.00000000E+00  0.00000000E+00
  0.00000000E+00  0.00000000E+00  0.00000000E+00
  0.00000000E+00  0.00000000E+00  0.00000000E+00
  0.00000000E+00  0.00000000E+00  0.00000000E+00
  0.00000000E+00  0.00000000E+00  0.00000000E+00
  0.00000000E+00  0.00000000E+00  0.00000000E+00
  0.00000000E+00  0.00000000E+00  0.00000000E+00
  0.00000000E+00  0.00000000E+00  0.00000000E+00
  0.00000000E+00  0.00000000E+00  0.00000000E+00
  0.00000000E+00  0.00000000E+00  0.00000000E+00
  0.00000000E+00  0.00000000E+00  0.00000000E+00
  0.00000000E+00  0.00000000E+00  0.00000000E+00
  0.00000000E+00  0.00000000E+00  0.00000000E+00
  0.00000000E+00  0.00000000E+00  0.00000000E+00
  0.00000000E+00  0.00000000E+00  0.00000000E+00
  0.00000000E+00  0.00000000E+00  0.00000000E+00
