Poscar file generated with pyiron       
   1.00000000000000     
     4.7833739369716630    0.0532017763331784    0.1790638027601090
    -0.1294563779295191   10.4654897005062377    0.3198236474102945
    -0.6562641837736198   -0.5498478977957829   17.7880001384795925
   Cs   I    Pb
     4    12     4
Direct
  0.6417324791427473  0.0485300640518271  0.3650306691607422
  0.1414203917772679  0.8866160608383670  0.7080888002862984
  0.6404275185923495  0.5478073208203490  0.2082852585815116
  0.1403316602313674  0.3851996725794568  0.8647459749731081
  0.6389600133387031  0.3046528638407964  0.0347979650020231
  0.1391305276431789  0.6268493876893306  0.0381380786743265
  0.6418437084398290  0.8071094740015972  0.5380345486193649
  0.1427781404247585  0.1297528597398257  0.5348318516146175
  0.1388962779040106  0.0003919365747468  0.9233729742932766
  0.6396419107959328  0.9313380719781554  0.1496680075055351
  0.1429410886636171  0.5027041633824422  0.6497092580132853
  0.6417402737502080  0.4336162354711119  0.4234319009572852
  0.1405153152810546  0.2648137397187350  0.2513078071813836
  0.6411148672060132  0.6683761922486828  0.8213345377865293
  0.1407490418584219  0.7660993301177688  0.3214014216183735
  0.6415472152756484  0.1690250320093303  0.7513594086620388
  0.1384952377220101  0.1256789934344126  0.0975918597456380
  0.6386126606945471  0.8059294196328700  0.9753803069561879
  0.1420475014979910  0.6280370027338882  0.4753938442261687
  0.6434147307096650  0.3085677353924491  0.5976681161247943
 
  0.00000000E+00  0.00000000E+00  0.00000000E+00
  0.00000000E+00  0.00000000E+00  0.00000000E+00
  0.00000000E+00  0.00000000E+00  0.00000000E+00
  0.00000000E+00  0.00000000E+00  0.00000000E+00
  0.00000000E+00  0.00000000E+00  0.00000000E+00
  0.00000000E+00  0.00000000E+00  0.00000000E+00
  0.00000000E+00  0.00000000E+00  0.00000000E+00
  0.00000000E+00  0.00000000E+00  0.00000000E+00
  0.00000000E+00  0.00000000E+00  0.00000000E+00
  0.00000000E+00  0.00000000E+00  0.00000000E+00
  0.00000000E+00  0.00000000E+00  0.00000000E+00
  0.00000000E+00  0.00000000E+00  0.00000000E+00
  0.00000000E+00  0.00000000E+00  0.00000000E+00
  0.00000000E+00  0.00000000E+00  0.00000000E+00
  0.00000000E+00  0.00000000E+00  0.00000000E+00
  0.00000000E+00  0.00000000E+00  0.00000000E+00
  0.00000000E+00  0.00000000E+00  0.00000000E+00
  0.00000000E+00  0.00000000E+00  0.00000000E+00
  0.00000000E+00  0.00000000E+00  0.00000000E+00
  0.00000000E+00  0.00000000E+00  0.00000000E+00
