Poscar file generated with pyiron       
   1.00000000000000     
     4.7825859879316308    0.0872064288342831    0.1564284799500156
    -0.1927949410152925   10.4702862747458223    0.2433209704309952
    -0.5754605898771734   -0.4174056352285966   17.7987966504569037
   Cs   I    Pb
     4    12     4
Direct
  0.7117907623209984  0.9866542330041066  0.3379404735554650
  0.2111482366232719  0.8244050786778094  0.6814639605032777
  0.7152969608471299  0.4874644872414846  0.1813373901741292
  0.2144751660071977  0.3251640846967624  0.8378839958833481
  0.7184608706180858  0.2457053940215639  0.0079971876856171
  0.2186242759833209  0.5680202642879026  0.0113746301617928
  0.7070090336844042  0.7437675615827578  0.5114795614482457
  0.2071195602594431  0.0660083386208725  0.5081544925450256
  0.2184727477146735  0.9414052346247743  0.8966800238343949
  0.7188052286366475  0.8721669790233000  0.1227699557851982
  0.2069268342525656  0.4394757557849053  0.6228602706229666
  0.7068559657872239  0.3705323894045884  0.3967366533626193
  0.2141414708464345  0.2048168106064327  0.2247767169042205
  0.7134440345069105  0.6078727842185104  0.7948766684964564
  0.2128351375086340  0.7038969235818539  0.2949890229912737
  0.7122696872384449  0.1070329653494596  0.7248499901161501
  0.2189478957242106  0.0666929879559606  0.0708322515909311
  0.7189434697417117  0.7470095030509927  0.9486172746049276
  0.2065703324884938  0.5648685961187803  0.4487518068468293
  0.7065634806791881  0.2449973985308147  0.5708546303095089
 
  0.00000000E+00  0.00000000E+00  0.00000000E+00
  0.00000000E+00  0.00000000E+00  0.00000000E+00
  0.00000000E+00  0.00000000E+00  0.00000000E+00
  0.00000000E+00  0.00000000E+00  0.00000000E+00
  0.00000000E+00  0.00000000E+00  0.00000000E+00
  0.00000000E+00  0.00000000E+00  0.00000000E+00
  0.00000000E+00  0.00000000E+00  0.00000000E+00
  0.00000000E+00  0.00000000E+00  0.00000000E+00
  0.00000000E+00  0.00000000E+00  0.00000000E+00
  0.00000000E+00  0.00000000E+00  0.00000000E+00
  0.00000000E+00  0.00000000E+00  0.00000000E+00
  0.00000000E+00  0.00000000E+00  0.00000000E+00
  0.00000000E+00  0.00000000E+00  0.00000000E+00
  0.00000000E+00  0.00000000E+00  0.00000000E+00
  0.00000000E+00  0.00000000E+00  0.00000000E+00
  0.00000000E+00  0.00000000E+00  0.00000000E+00
  0.00000000E+00  0.00000000E+00  0.00000000E+00
  0.00000000E+00  0.00000000E+00  0.00000000E+00
  0.00000000E+00  0.00000000E+00  0.00000000E+00
  0.00000000E+00  0.00000000E+00  0.00000000E+00
