Poscar file generated with pyiron       
   1.00000000000000     
     4.7799418848260196    0.0393217602488183    0.2905005362889553
    -0.1031631495992729   10.4668335250117970    0.2448475018014192
    -1.0787640605222564   -0.4251475938240784   17.7700419107139034
   Cs   I    Pb
     4    12     4
Direct
  0.6300850191171229  0.9982547233878180  0.3456126361693000
  0.1278168486467149  0.8350922406723845  0.6891174576490047
  0.6312271655915824  0.4981920633980985  0.1891491776057941
  0.1298006682629656  0.3348585716619104  0.8456424256853964
  0.6324578025112342  0.2551845792658466  0.0157292415182107
  0.1325446947322939  0.5772490024740187  0.0188570871496695
  0.6272050972898788  0.7555602068853969  0.5191277226366626
  0.1272924473717081  0.0775589967273382  0.5157719370147202
  0.1324089084500782  0.9507837341009694  0.9041630990046691
  0.6328420511832392  0.8816646525319817  0.1303234284907102
  0.1267041454015033  0.4508961373492856  0.6305260611536556
  0.6275904220468426  0.3824453750308935  0.4042796029482060
  0.1311819166696024  0.2151100236311478  0.2321744416622169
  0.6288792089663358  0.6175778269624386  0.8023095728588502
  0.1300094369087478  0.7152691085323485  0.3024837060105984
  0.6284084691919560  0.1178897274922682  0.7322760637870631
  0.1331016129300508  0.0761668672874841  0.0783637682248660
  0.6326496995028101  0.7562642978247948  0.9561598470724345
  0.1273931807237204  0.5766672902614776  0.4564197593378685
  0.6271544541960354  0.2565749214902963  0.5784062958568353
 
  0.00000000E+00  0.00000000E+00  0.00000000E+00
  0.00000000E+00  0.00000000E+00  0.00000000E+00
  0.00000000E+00  0.00000000E+00  0.00000000E+00
  0.00000000E+00  0.00000000E+00  0.00000000E+00
  0.00000000E+00  0.00000000E+00  0.00000000E+00
  0.00000000E+00  0.00000000E+00  0.00000000E+00
  0.00000000E+00  0.00000000E+00  0.00000000E+00
  0.00000000E+00  0.00000000E+00  0.00000000E+00
  0.00000000E+00  0.00000000E+00  0.00000000E+00
  0.00000000E+00  0.00000000E+00  0.00000000E+00
  0.00000000E+00  0.00000000E+00  0.00000000E+00
  0.00000000E+00  0.00000000E+00  0.00000000E+00
  0.00000000E+00  0.00000000E+00  0.00000000E+00
  0.00000000E+00  0.00000000E+00  0.00000000E+00
  0.00000000E+00  0.00000000E+00  0.00000000E+00
  0.00000000E+00  0.00000000E+00  0.00000000E+00
  0.00000000E+00  0.00000000E+00  0.00000000E+00
  0.00000000E+00  0.00000000E+00  0.00000000E+00
  0.00000000E+00  0.00000000E+00  0.00000000E+00
  0.00000000E+00  0.00000000E+00  0.00000000E+00
