Poscar file generated with pyiron       
   1.00000000000000     
     4.7873115544674691   -0.0004789324599041    0.1020785107759405
    -0.0054532512836276   10.4557304503410879    0.3295223990569844
    -0.3780293193962554   -0.5620763045421642   17.8053886878655128
   Cs   I    Pb
     4    12     4
Direct
  0.7336515291869491  0.1026865968372069  0.3517837929572012
  0.2331856440668856  0.9374214259985143  0.6956718742525695
  0.7342888894261874  0.6036919575026136  0.1958185708663296
  0.2341765890760775  0.4382065670589605  0.8519890190828645
  0.7351753358665554  0.3605265477172917  0.0223516330449293
  0.2356365074559426  0.6820300728617497  0.0256090436677264
  0.7323302745064063  0.8585642176047740  0.5255574577864173
  0.2325606183882673  0.1799659023526928  0.5222673407075910
  0.2356339980116944  0.0554674717751222  0.9110591313136518
  0.7353734462018913  0.9870392634749339  0.1372271581090651
  0.2323679009299243  0.5534173199016271  0.6372168163415367
  0.7324165672358057  0.4851149197238465  0.4109393947451363
  0.2337905514479745  0.3207100673602364  0.2386047299102396
  0.7336887439337253  0.7214658359840058  0.8096637850973398
  0.2338766875386029  0.8195268488176930  0.3097258628090389
  0.7339236745196441  0.2202684246822808  0.7387243745029374
  0.2354131703880967  0.1815679014132920  0.0850071605352141
  0.7358663496953194  0.8610956646709599  0.9631520226097052
  0.2321659034820651  0.6794695516660763  0.4631517826052583
  0.7324618855227910  0.3589203530346603  0.5849494087876275
 
  0.00000000E+00  0.00000000E+00  0.00000000E+00
  0.00000000E+00  0.00000000E+00  0.00000000E+00
  0.00000000E+00  0.00000000E+00  0.00000000E+00
  0.00000000E+00  0.00000000E+00  0.00000000E+00
  0.00000000E+00  0.00000000E+00  0.00000000E+00
  0.00000000E+00  0.00000000E+00  0.00000000E+00
  0.00000000E+00  0.00000000E+00  0.00000000E+00
  0.00000000E+00  0.00000000E+00  0.00000000E+00
  0.00000000E+00  0.00000000E+00  0.00000000E+00
  0.00000000E+00  0.00000000E+00  0.00000000E+00
  0.00000000E+00  0.00000000E+00  0.00000000E+00
  0.00000000E+00  0.00000000E+00  0.00000000E+00
  0.00000000E+00  0.00000000E+00  0.00000000E+00
  0.00000000E+00  0.00000000E+00  0.00000000E+00
  0.00000000E+00  0.00000000E+00  0.00000000E+00
  0.00000000E+00  0.00000000E+00  0.00000000E+00
  0.00000000E+00  0.00000000E+00  0.00000000E+00
  0.00000000E+00  0.00000000E+00  0.00000000E+00
  0.00000000E+00  0.00000000E+00  0.00000000E+00
  0.00000000E+00  0.00000000E+00  0.00000000E+00
