Poscar file generated with pyiron       
   1.00000000000000     
     4.7818754422536376   -0.0593382330938406    0.1221334365516242
     0.1244444651714277   10.4806661687158797    0.2305657002839341
    -0.4585463604478017   -0.3851191612982156   17.7993472231635792
   Cs   I    Pb
     4    12     4
Direct
  0.6249329182288906  0.0518210883198748  0.3660331595267629
  0.1253281036392974  0.8930995100944913  0.7089615536853255
  0.6211001573273919  0.5504406553309906  0.2087221762295220
  0.1219025383039046  0.3920198649223622  0.8656788883946508
  0.6180692080295017  0.3089034576824546  0.0357614016747064
  0.1180623282319065  0.6321424826617621  0.0386020441772928
  0.6282906313627460  0.8119419609718739  0.5388584697609664
  0.1277183250679497  0.1353782524761443  0.5358638391865371
  0.1179001502094126  0.0058745219080646  0.9243038588209110
  0.6180457979006435  0.9357335244656888  0.1503943399491941
  0.1274367747508974  0.5086676914142725  0.6504157084770742
  0.6284080865566953  0.4383409777007722  0.4243443591598485
  0.1219385318738407  0.2682514009474611  0.2527249314524153
  0.6224501172895933  0.6746891462921337  0.8216833864136994
  0.1238731396624841  0.7691798875861725  0.3215532831222356
  0.6240230986764366  0.1754820646456403  0.7525643761025074
  0.1176966805991428  0.1300401148986080  0.0986706878563246
  0.6176596714326879  0.8113997747126206  0.9760434220664621
  0.1284541423198212  0.6328007430698779  0.4758986376511453
  0.6279514968883583  0.3142952215205286  0.5986783789105160
 
  0.00000000E+00  0.00000000E+00  0.00000000E+00
  0.00000000E+00  0.00000000E+00  0.00000000E+00
  0.00000000E+00  0.00000000E+00  0.00000000E+00
  0.00000000E+00  0.00000000E+00  0.00000000E+00
  0.00000000E+00  0.00000000E+00  0.00000000E+00
  0.00000000E+00  0.00000000E+00  0.00000000E+00
  0.00000000E+00  0.00000000E+00  0.00000000E+00
  0.00000000E+00  0.00000000E+00  0.00000000E+00
  0.00000000E+00  0.00000000E+00  0.00000000E+00
  0.00000000E+00  0.00000000E+00  0.00000000E+00
  0.00000000E+00  0.00000000E+00  0.00000000E+00
  0.00000000E+00  0.00000000E+00  0.00000000E+00
  0.00000000E+00  0.00000000E+00  0.00000000E+00
  0.00000000E+00  0.00000000E+00  0.00000000E+00
  0.00000000E+00  0.00000000E+00  0.00000000E+00
  0.00000000E+00  0.00000000E+00  0.00000000E+00
  0.00000000E+00  0.00000000E+00  0.00000000E+00
  0.00000000E+00  0.00000000E+00  0.00000000E+00
  0.00000000E+00  0.00000000E+00  0.00000000E+00
  0.00000000E+00  0.00000000E+00  0.00000000E+00
