Poscar file generated with pyiron       
   1.00000000000000     
     4.7833029598399994    0.1221298396133208    0.1616839737890881
    -0.2768316204584599   10.4540846547213349    0.3660033707326087
    -0.5876816991549100   -0.6342827713417702   17.7863622041184577
   Cs   I    Pb
     4    12     4
Direct
  0.6457098244416503  0.0472784769500423  0.3681124312217366
  0.1432363801799099  0.8827924831303628  0.7119012886008141
  0.6439106013968944  0.5458512612490514  0.2119201338758773
  0.1410981681955310  0.3812597793787672  0.8679321267633952
  0.6400341876905032  0.3006735430438574  0.0378397078983741
  0.1406058930157668  0.6220661489052596  0.0416276761666223
  0.6452119715624095  0.8054189049325748  0.5417276819074414
  0.1462415030381447  0.1269710082455740  0.5380662586518723
  0.1399202100809316  0.9957208657315144  0.9268139086618851
  0.6402630919507731  0.9279237677861211  0.1529793599851131
  0.1458289920674134  0.4998274463556268  0.6530526796199810
  0.6452266711484567  0.4320263517272730  0.4268269634205392
  0.1438862784694541  0.2627073505252301  0.2541093158685961
  0.6418892500355058  0.6638149643144924  0.8248950235687238
  0.1444876060708779  0.7643258867036811  0.3250339581055592
  0.6425803806718132  0.1654034391957527  0.7543666719672071
  0.1392582709730908  0.1222171251190502  0.1006884703840755
  0.6398124623512406  0.8012902131155646  0.9790002190423209
  0.1448340268876903  0.6264085741315256  0.4790189537490216
  0.6469255123918821  0.3056226459529321  0.6008399481855281
 
  0.00000000E+00  0.00000000E+00  0.00000000E+00
  0.00000000E+00  0.00000000E+00  0.00000000E+00
  0.00000000E+00  0.00000000E+00  0.00000000E+00
  0.00000000E+00  0.00000000E+00  0.00000000E+00
  0.00000000E+00  0.00000000E+00  0.00000000E+00
  0.00000000E+00  0.00000000E+00  0.00000000E+00
  0.00000000E+00  0.00000000E+00  0.00000000E+00
  0.00000000E+00  0.00000000E+00  0.00000000E+00
  0.00000000E+00  0.00000000E+00  0.00000000E+00
  0.00000000E+00  0.00000000E+00  0.00000000E+00
  0.00000000E+00  0.00000000E+00  0.00000000E+00
  0.00000000E+00  0.00000000E+00  0.00000000E+00
  0.00000000E+00  0.00000000E+00  0.00000000E+00
  0.00000000E+00  0.00000000E+00  0.00000000E+00
  0.00000000E+00  0.00000000E+00  0.00000000E+00
  0.00000000E+00  0.00000000E+00  0.00000000E+00
  0.00000000E+00  0.00000000E+00  0.00000000E+00
  0.00000000E+00  0.00000000E+00  0.00000000E+00
  0.00000000E+00  0.00000000E+00  0.00000000E+00
  0.00000000E+00  0.00000000E+00  0.00000000E+00
