Poscar file generated with pyiron       
   1.00000000000000     
     4.7753461380155482    0.0122078923220066    0.3003530679178054
    -0.0402409967324143   10.4688054864358175    0.1843746451808689
    -1.1141974862753068   -0.3259305833453048   17.7717716678117768
   Cs   I    Pb
     4    12     4
Direct
  0.6156162431281444  0.0086688270532939  0.3406249182170171
  0.1160182579080117  0.8468651033162382  0.6842021357152894
  0.6183366057240386  0.5093323501378105  0.1838846140090021
  0.1170730911345893  0.3473734644657611  0.8404466334980263
  0.6210254166487280  0.2676029532957387  0.0107601438989851
  0.1206423853678583  0.5901579368198927  0.0137099758894727
  0.6138266841535249  0.7662159583512518  0.5140730158865804
  0.1136720029464985  0.0882821044355436  0.5109202696569516
  0.1210691014756779  0.9635963222484835  0.8991605716282761
  0.6209262254991137  0.8940365697891912  0.1254743125298216
  0.1138521548885496  0.4621238018121576  0.6254272293256817
  0.6135185686243232  0.3927007927639603  0.3993126056604217
  0.1173412905473193  0.2265431197075642  0.2274778367846085
  0.6169118803037865  0.6301155971254674  0.7973872977030045
  0.1162444011367425  0.7258318838208685  0.2975637276640875
  0.6164012036496808  0.1296669696511396  0.7274195674421546
  0.1212825279475418  0.0885159231159558  0.0734685412072291
  0.6209814061068933  0.7692072909670685  0.9511516166761065
  0.1135833027612971  0.5871297250736532  0.4513844024302658
  0.6135420682422105  0.2675735369324473  0.5734293536424208
 
  0.00000000E+00  0.00000000E+00  0.00000000E+00
  0.00000000E+00  0.00000000E+00  0.00000000E+00
  0.00000000E+00  0.00000000E+00  0.00000000E+00
  0.00000000E+00  0.00000000E+00  0.00000000E+00
  0.00000000E+00  0.00000000E+00  0.00000000E+00
  0.00000000E+00  0.00000000E+00  0.00000000E+00
  0.00000000E+00  0.00000000E+00  0.00000000E+00
  0.00000000E+00  0.00000000E+00  0.00000000E+00
  0.00000000E+00  0.00000000E+00  0.00000000E+00
  0.00000000E+00  0.00000000E+00  0.00000000E+00
  0.00000000E+00  0.00000000E+00  0.00000000E+00
  0.00000000E+00  0.00000000E+00  0.00000000E+00
  0.00000000E+00  0.00000000E+00  0.00000000E+00
  0.00000000E+00  0.00000000E+00  0.00000000E+00
  0.00000000E+00  0.00000000E+00  0.00000000E+00
  0.00000000E+00  0.00000000E+00  0.00000000E+00
  0.00000000E+00  0.00000000E+00  0.00000000E+00
  0.00000000E+00  0.00000000E+00  0.00000000E+00
  0.00000000E+00  0.00000000E+00  0.00000000E+00
  0.00000000E+00  0.00000000E+00  0.00000000E+00
