Poscar file generated with pyiron       
   1.00000000000000     
     4.7842750000000001    0.0736330000000000    0.1454320000000000
    -0.1722320000000000   10.4680920000000004    0.2532160000000000
    -0.5307010000000000   -0.4494900000000000   17.7929670000000009
   Cs   I    Pb
     4    12     4
Direct
  0.7120167009045772  0.9884040653918476  0.3347338366040944
  0.2129699985913334  0.8257290828919466  0.6782031446038985
  0.7140195783670009  0.4886096023655071  0.1782008886389619
  0.2137704087035459  0.3257541379314333  0.8349037119700000
  0.7156632255450575  0.2462474735251305  0.0048321210704643
  0.2159427192046692  0.5685643810184260  0.0081991144452118
  0.7101087731083453  0.7456283555752421  0.5082137439245713
  0.2108041237752190  0.0678268850009331  0.5047965268677785
  0.2156926791621245  0.9417957503557517  0.8933762013632673
  0.7159863804886299  0.8727862176454835  0.1195336596678231
  0.2102423879490303  0.4413349046382322  0.6195467253557396
  0.7104969289285350  0.3722773359450571  0.3933378754431871
  0.2133182391760968  0.2058757101072359  0.2214412611253778
  0.7132505678479575  0.6083669702347123  0.7914394595192817
  0.2128375554968613  0.7057479408594745  0.2916439003456901
  0.7132094515325846  0.1084424295106245  0.7214902503089817
  0.2158138221902561  0.0671799835820224  0.0675748532957527
  0.7157804349547376  0.7474355565494974  0.9453288572154364
  0.2100788306688841  0.5668262124310743  0.4453960180390268
  0.7103819962086604  0.2468749281665481  0.5675151927669333
 
  0.00000000E+00  0.00000000E+00  0.00000000E+00
  0.00000000E+00  0.00000000E+00  0.00000000E+00
  0.00000000E+00  0.00000000E+00  0.00000000E+00
  0.00000000E+00  0.00000000E+00  0.00000000E+00
  0.00000000E+00  0.00000000E+00  0.00000000E+00
  0.00000000E+00  0.00000000E+00  0.00000000E+00
  0.00000000E+00  0.00000000E+00  0.00000000E+00
  0.00000000E+00  0.00000000E+00  0.00000000E+00
  0.00000000E+00  0.00000000E+00  0.00000000E+00
  0.00000000E+00  0.00000000E+00  0.00000000E+00
  0.00000000E+00  0.00000000E+00  0.00000000E+00
  0.00000000E+00  0.00000000E+00  0.00000000E+00
  0.00000000E+00  0.00000000E+00  0.00000000E+00
  0.00000000E+00  0.00000000E+00  0.00000000E+00
  0.00000000E+00  0.00000000E+00  0.00000000E+00
  0.00000000E+00  0.00000000E+00  0.00000000E+00
  0.00000000E+00  0.00000000E+00  0.00000000E+00
  0.00000000E+00  0.00000000E+00  0.00000000E+00
  0.00000000E+00  0.00000000E+00  0.00000000E+00
  0.00000000E+00  0.00000000E+00  0.00000000E+00
