Poscar file generated with pyiron       
   1.00000000000000     
     4.7848059794219466    0.0923458003272236    0.1287936007629627
    -0.2039231231361958   10.4643914331318708    0.3354135939680720
    -0.4666300939175962   -0.5774301286510035   17.7986203928558098
   Cs   I    Pb
     4    12     4
Direct
  0.6542842502907057  0.0446775178161298  0.3685626991183471
  0.1537341576472921  0.8804801741483603  0.7121116722413156
  0.6524849747250722  0.5424239846835845  0.2120882195169054
  0.1526396487241818  0.3786845286244327  0.8686577896942431
  0.6501696669995525  0.2979267103263302  0.0386106591848858
  0.1497664021406862  0.6203379634735106  0.0417499757122828
  0.6573157371577377  0.8030563423400459  0.5417043289778781
  0.1569051669809140  0.1248581969930245  0.5386459017133373
  0.1496147169138146  0.9939387339923054  0.9272044607007605
  0.6499078941596625  0.9250618967832689  0.1534519696055455
  0.1566205237537380  0.4978755157273614  0.6533825766959318
  0.6576265809506999  0.4292989592720613  0.4273742515592268
  0.1531911048383518  0.2598138009441461  0.2547210999798514
  0.6528111784045790  0.6616989660535690  0.8252589691935439
  0.1540511528682278  0.7611864411129867  0.3251703783719702
  0.6537405888284754  0.1631196396697069  0.7547350616833619
  0.1495828937754085  0.1192439899987714  0.1013627309703346
  0.6492267495995837  0.7994436399760979  0.9791672437470946
  0.1576386231447433  0.6238968360311501  0.4792032765328828
  0.6570398437728070  0.3035864434649357  0.6013712029817306
 
  0.00000000E+00  0.00000000E+00  0.00000000E+00
  0.00000000E+00  0.00000000E+00  0.00000000E+00
  0.00000000E+00  0.00000000E+00  0.00000000E+00
  0.00000000E+00  0.00000000E+00  0.00000000E+00
  0.00000000E+00  0.00000000E+00  0.00000000E+00
  0.00000000E+00  0.00000000E+00  0.00000000E+00
  0.00000000E+00  0.00000000E+00  0.00000000E+00
  0.00000000E+00  0.00000000E+00  0.00000000E+00
  0.00000000E+00  0.00000000E+00  0.00000000E+00
  0.00000000E+00  0.00000000E+00  0.00000000E+00
  0.00000000E+00  0.00000000E+00  0.00000000E+00
  0.00000000E+00  0.00000000E+00  0.00000000E+00
  0.00000000E+00  0.00000000E+00  0.00000000E+00
  0.00000000E+00  0.00000000E+00  0.00000000E+00
  0.00000000E+00  0.00000000E+00  0.00000000E+00
  0.00000000E+00  0.00000000E+00  0.00000000E+00
  0.00000000E+00  0.00000000E+00  0.00000000E+00
  0.00000000E+00  0.00000000E+00  0.00000000E+00
  0.00000000E+00  0.00000000E+00  0.00000000E+00
  0.00000000E+00  0.00000000E+00  0.00000000E+00
