Poscar file generated with pyiron       
   1.00000000000000     
     4.7860908762845717   -0.0461964698369433    0.1282005810776624
     0.0942467793647054   10.4650165411556415    0.2974457399267224
    -0.4944864883735358   -0.4953220404383770   17.8033045456193335
   Cs   I    Pb
     4    12     4
Direct
  0.7293355209850604  0.1108142400200045  0.3537945086507412
  0.2301771245309211  0.9466822354878434  0.6979722392857518
  0.7300745853537316  0.6117738686492299  0.1978967555920917
  0.2317180083883940  0.4475933688727058  0.8538561681890517
  0.7332929645307069  0.3699846870625773  0.0240576006515565
  0.2327664336501963  0.6916396830005448  0.0276993928613130
  0.7279858243010016  0.8671087665382984  0.5279491628755453
  0.2287873264121794  0.1886036536919956  0.5240719585773093
  0.2326926840699021  0.0646919652957351  0.9127653634130259
  0.7337039712205636  0.9963886693403052  0.1387091452379665
  0.2290689308943219  0.5619760695013529  0.6388873281341568
  0.7274182907510089  0.4942206748192751  0.4128873054477533
  0.2294979373284252  0.3288646463560892  0.2406298638823574
  0.7310954514014946  0.7304155127679177  0.8113348575824776
  0.2297509303262294  0.8281216531961365  0.3114818311270249
  0.7309878534561270  0.2297761023996477  0.7407644584663241
  0.2338107043948630  0.1909284322371052  0.0866901309841489
  0.7328507929936146  0.8701452405434340  0.9648580216913429
  0.2275374631223988  0.6885161030859451  0.4651775811049172
  0.7288831516424231  0.3676088981444766  0.5867049556711218
 
  0.00000000E+00  0.00000000E+00  0.00000000E+00
  0.00000000E+00  0.00000000E+00  0.00000000E+00
  0.00000000E+00  0.00000000E+00  0.00000000E+00
  0.00000000E+00  0.00000000E+00  0.00000000E+00
  0.00000000E+00  0.00000000E+00  0.00000000E+00
  0.00000000E+00  0.00000000E+00  0.00000000E+00
  0.00000000E+00  0.00000000E+00  0.00000000E+00
  0.00000000E+00  0.00000000E+00  0.00000000E+00
  0.00000000E+00  0.00000000E+00  0.00000000E+00
  0.00000000E+00  0.00000000E+00  0.00000000E+00
  0.00000000E+00  0.00000000E+00  0.00000000E+00
  0.00000000E+00  0.00000000E+00  0.00000000E+00
  0.00000000E+00  0.00000000E+00  0.00000000E+00
  0.00000000E+00  0.00000000E+00  0.00000000E+00
  0.00000000E+00  0.00000000E+00  0.00000000E+00
  0.00000000E+00  0.00000000E+00  0.00000000E+00
  0.00000000E+00  0.00000000E+00  0.00000000E+00
  0.00000000E+00  0.00000000E+00  0.00000000E+00
  0.00000000E+00  0.00000000E+00  0.00000000E+00
  0.00000000E+00  0.00000000E+00  0.00000000E+00
