Poscar file generated with pyiron       
   1.00000000000000     
     4.7845923451607533    0.0736711984522058    0.1165352160538467
    -0.1649991617737581   10.4690892625918366    0.1336663132323458
    -0.4310603028315826   -0.2223139027770656   17.8102105135405182
   Cs   I    Pb
     4    12     4
Direct
  0.6855512687247995  0.9733019577558086  0.3350904927303924
  0.1889333974988495  0.8109516782767511  0.6780669020483249
  0.6898129789066297  0.4747622204493912  0.1783870120817418
  0.1932842385219856  0.3120666815291493  0.8350932739267499
  0.6958903979504849  0.2332018942080982  0.0051757653622641
  0.1959491731051229  0.5557060561951974  0.0082074254055760
  0.6824096857653126  0.7295258783426152  0.5081300256473171
  0.1823670761055422  0.0524512780827425  0.5049988245853967
  0.1965337225032572  0.9291815478481662  0.8935606294881823
  0.6961903791856211  0.8595904996287488  0.1196991935869937
  0.1827400831207703  0.4257268845690058  0.6196402010256322
  0.6821105324646319  0.3565574374486757  0.3934841978206022
  0.1888261357875544  0.1917790626415270  0.2218025211551165
  0.6924731227479241  0.5950750433765047  0.7921054995520369
  0.1865064984239522  0.6909248113497413  0.2920974829181218
  0.6902787716286805  0.0936616473558490  0.7219334163284109
  0.1960530424417948  0.0542667537526008  0.0679203868036000
  0.6972703399637079  0.7349250205382066  0.9455943639537429
  0.1815902403596311  0.5507057959892011  0.4455035576043234
  0.6823552546347710  0.2312960202587631  0.5679123908876440
 
  0.00000000E+00  0.00000000E+00  0.00000000E+00
  0.00000000E+00  0.00000000E+00  0.00000000E+00
  0.00000000E+00  0.00000000E+00  0.00000000E+00
  0.00000000E+00  0.00000000E+00  0.00000000E+00
  0.00000000E+00  0.00000000E+00  0.00000000E+00
  0.00000000E+00  0.00000000E+00  0.00000000E+00
  0.00000000E+00  0.00000000E+00  0.00000000E+00
  0.00000000E+00  0.00000000E+00  0.00000000E+00
  0.00000000E+00  0.00000000E+00  0.00000000E+00
  0.00000000E+00  0.00000000E+00  0.00000000E+00
  0.00000000E+00  0.00000000E+00  0.00000000E+00
  0.00000000E+00  0.00000000E+00  0.00000000E+00
  0.00000000E+00  0.00000000E+00  0.00000000E+00
  0.00000000E+00  0.00000000E+00  0.00000000E+00
  0.00000000E+00  0.00000000E+00  0.00000000E+00
  0.00000000E+00  0.00000000E+00  0.00000000E+00
  0.00000000E+00  0.00000000E+00  0.00000000E+00
  0.00000000E+00  0.00000000E+00  0.00000000E+00
  0.00000000E+00  0.00000000E+00  0.00000000E+00
  0.00000000E+00  0.00000000E+00  0.00000000E+00
