Poscar file generated with pyiron       
   1.00000000000000     
     4.7781391216537354   -0.0076798227778049    0.2456054419004620
     0.0027907149221262   10.4721601814204242    0.3391538666671108
    -0.9100064853589827   -0.5762413443976400   17.7727401434731789
   Cs   I    Pb
     4    12     4
Direct
  0.6492080847516927  0.0084739308653957  0.3415229888290082
  0.1461626834723451  0.8472911663848632  0.6845832075869770
  0.6519176346267812  0.5089827079720021  0.1848540109269149
  0.1484109091189392  0.3482996573490775  0.8415707849509098
  0.6532148065904377  0.2677056554027186  0.0115936726454024
  0.1535217920434105  0.5903883887074405  0.0149333738661207
  0.6454894293980386  0.7658581304157884  0.5147380560941829
  0.1460713825476771  0.0885610135205359  0.5115473013837635
  0.1534595807686834  0.9635635150246871  0.9000107676654082
  0.6537029088599933  0.8942859124414321  0.1263665362961221
  0.1452805240577945  0.4618950197742218  0.6262744492685918
  0.6460351454511342  0.3925997652917674  0.4000161401104163
  0.1514999786543314  0.2263999940186325  0.2284008004074618
  0.6473553615503993  0.6307807949485924  0.7981150423834039
  0.1497249510715070  0.7259299557509723  0.2982617006512725
  0.6477860941793346  0.1300012124842548  0.7284295687620655
  0.1538552457769454  0.0886068392126333  0.0743430573788936
  0.6537309979013581  0.7693090357590726  0.9520567774602395
  0.1454347674225460  0.5868398783084785  0.4519943820439386
  0.6455072552465905  0.2675227732663946  0.5743619852374119
 
  0.00000000E+00  0.00000000E+00  0.00000000E+00
  0.00000000E+00  0.00000000E+00  0.00000000E+00
  0.00000000E+00  0.00000000E+00  0.00000000E+00
  0.00000000E+00  0.00000000E+00  0.00000000E+00
  0.00000000E+00  0.00000000E+00  0.00000000E+00
  0.00000000E+00  0.00000000E+00  0.00000000E+00
  0.00000000E+00  0.00000000E+00  0.00000000E+00
  0.00000000E+00  0.00000000E+00  0.00000000E+00
  0.00000000E+00  0.00000000E+00  0.00000000E+00
  0.00000000E+00  0.00000000E+00  0.00000000E+00
  0.00000000E+00  0.00000000E+00  0.00000000E+00
  0.00000000E+00  0.00000000E+00  0.00000000E+00
  0.00000000E+00  0.00000000E+00  0.00000000E+00
  0.00000000E+00  0.00000000E+00  0.00000000E+00
  0.00000000E+00  0.00000000E+00  0.00000000E+00
  0.00000000E+00  0.00000000E+00  0.00000000E+00
  0.00000000E+00  0.00000000E+00  0.00000000E+00
  0.00000000E+00  0.00000000E+00  0.00000000E+00
  0.00000000E+00  0.00000000E+00  0.00000000E+00
  0.00000000E+00  0.00000000E+00  0.00000000E+00
