Poscar file generated with pyiron       
   1.00000000000000     
     4.7835583343124384    0.0294771382006292    0.1830498198244608
    -0.0714835108924163   10.4707382523522661    0.2068972447907317
    -0.6786063428506401   -0.3633600887869665   17.7922248011735675
   Cs   I    Pb
     4    12     4
Direct
  0.6164130062936334  0.9977369816322698  0.3477425001777831
  0.1147410731466564  0.8334911836941451  0.6915558024210783
  0.6208054953797706  0.4985562117032450  0.1915847797366359
  0.1198845483727621  0.3341953383404407  0.8477395495692055
  0.6263100087999568  0.2553352884270593  0.0177328908676994
  0.1264754234471869  0.5769317255015345  0.0216454472839489
  0.6109842525801952  0.7546641858474394  0.5217273546551326
  0.1106949318219623  0.0765344361955321  0.5177962066306028
  0.1267280351407224  0.9501232126472193  0.9068805119496715
  0.6265614532221396  0.8823818821416752  0.1331574190304910
  0.1102649701198141  0.4493213251636142  0.6331488622161567
  0.6109957398777590  0.3813098201439084  0.4068668557614329
  0.1192771653331102  0.2160001907612073  0.2346528545470372
  0.6181687832372097  0.6172395902343700  0.8052056105623437
  0.1178057517077772  0.7145914074358044  0.3055222877052116
  0.6163213950158637  0.1161359643503714  0.7345304602048504
  0.1272129863204786  0.0768765270486698  0.0808721532302520
  0.6273770723947718  0.7559944260932021  0.9590543459023205
  0.1099543012559601  0.5754992127934910  0.4591965792864261
  0.6092834221621585  0.2550687758291640  0.5807583747065422
 
  0.00000000E+00  0.00000000E+00  0.00000000E+00
  0.00000000E+00  0.00000000E+00  0.00000000E+00
  0.00000000E+00  0.00000000E+00  0.00000000E+00
  0.00000000E+00  0.00000000E+00  0.00000000E+00
  0.00000000E+00  0.00000000E+00  0.00000000E+00
  0.00000000E+00  0.00000000E+00  0.00000000E+00
  0.00000000E+00  0.00000000E+00  0.00000000E+00
  0.00000000E+00  0.00000000E+00  0.00000000E+00
  0.00000000E+00  0.00000000E+00  0.00000000E+00
  0.00000000E+00  0.00000000E+00  0.00000000E+00
  0.00000000E+00  0.00000000E+00  0.00000000E+00
  0.00000000E+00  0.00000000E+00  0.00000000E+00
  0.00000000E+00  0.00000000E+00  0.00000000E+00
  0.00000000E+00  0.00000000E+00  0.00000000E+00
  0.00000000E+00  0.00000000E+00  0.00000000E+00
  0.00000000E+00  0.00000000E+00  0.00000000E+00
  0.00000000E+00  0.00000000E+00  0.00000000E+00
  0.00000000E+00  0.00000000E+00  0.00000000E+00
  0.00000000E+00  0.00000000E+00  0.00000000E+00
  0.00000000E+00  0.00000000E+00  0.00000000E+00
