Poscar file generated with pyiron       
   1.00000000000000     
     4.7832619999999997   -0.0355750000000000    0.1149570000000000
     0.0759270000000000   10.4757529999999992    0.2143260000000000
    -0.4337790000000000   -0.3630590000000000   17.7975420000000000
   Cs   I    Pb
     4    12     4
Direct
  0.6240698166115806  0.0618558609174542  0.3645620238127449
  0.1255484639411861  0.8991237441928845  0.7078938249589797
  0.6229463731558482  0.5614057689586076  0.2080083577950518
  0.1233686771135254  0.3988212562217939  0.8651338209123196
  0.6221711168795494  0.3182340129787562  0.0349425250086242
  0.1224870142524566  0.6413456548229703  0.0380248308606710
  0.6250606500019700  0.8198997422165704  0.5378550141150029
  0.1252032105488183  0.1417429528794187  0.5345520146687406
  0.1218248035166951  0.0142120924901477  0.9231812740600560
  0.6222359966680813  0.9449181926978909  0.1494695345843482
  0.1251539263660320  0.5148755149171578  0.6492514954740898
  0.6247098041669261  0.4465713601829293  0.4231258732997958
  0.1235994007795895  0.2784714782215474  0.2512230375070530
  0.6242923597181189  0.6813918169145126  0.8212225512261284
  0.1235663158190761  0.7786952369832179  0.3212236066780676
  0.6243126345831200  0.1820796381452112  0.7512338120506357
  0.1223158227846994  0.1392197522228003  0.0976310046481146
  0.6216044173721826  0.8200313029669601  0.9750517339928706
  0.1254926223373829  0.6407114755214067  0.4752445609063898
  0.6255208383169020  0.3205164095835329  0.5974184179041728
 
  0.00000000E+00  0.00000000E+00  0.00000000E+00
  0.00000000E+00  0.00000000E+00  0.00000000E+00
  0.00000000E+00  0.00000000E+00  0.00000000E+00
  0.00000000E+00  0.00000000E+00  0.00000000E+00
  0.00000000E+00  0.00000000E+00  0.00000000E+00
  0.00000000E+00  0.00000000E+00  0.00000000E+00
  0.00000000E+00  0.00000000E+00  0.00000000E+00
  0.00000000E+00  0.00000000E+00  0.00000000E+00
  0.00000000E+00  0.00000000E+00  0.00000000E+00
  0.00000000E+00  0.00000000E+00  0.00000000E+00
  0.00000000E+00  0.00000000E+00  0.00000000E+00
  0.00000000E+00  0.00000000E+00  0.00000000E+00
  0.00000000E+00  0.00000000E+00  0.00000000E+00
  0.00000000E+00  0.00000000E+00  0.00000000E+00
  0.00000000E+00  0.00000000E+00  0.00000000E+00
  0.00000000E+00  0.00000000E+00  0.00000000E+00
  0.00000000E+00  0.00000000E+00  0.00000000E+00
  0.00000000E+00  0.00000000E+00  0.00000000E+00
  0.00000000E+00  0.00000000E+00  0.00000000E+00
  0.00000000E+00  0.00000000E+00  0.00000000E+00
