Poscar file generated with pyiron       
   1.00000000000000     
     4.7864644565239223   -0.0526988713105839    0.0173054940616165
     0.1128241154337792   10.4563144348288244    0.4248694963482610
    -0.0765405881749048   -0.7114302621973929   17.7966072829539819
   Cs   I    Pb
     4    12     4
Direct
  0.6906238439839560  0.0058972179652255  0.3408219392295431
  0.1920767088216930  0.8420002374614435  0.6845738725026432
  0.6894069596663769  0.5073593098961543  0.1844203125328561
  0.1906900508732061  0.3430276969117189  0.8408090372511073
  0.6868703407580219  0.2650025551058474  0.0110192152168609
  0.1866459408482531  0.5867921476067203  0.0140627508668256
  0.6928895742276558  0.7612881034939044  0.5146972235568861
  0.1925988759881950  0.0828496973475115  0.5109359923603017
  0.1865955934010094  0.9601608187087881  0.8995034329093491
  0.6865855760072360  0.8911143563777902  0.1254758472104963
  0.1929633926236491  0.4562102671434012  0.6257194561569910
  0.6926038424066502  0.3884619585104506  0.3996670266474456
  0.1897624236240578  0.2241021550879389  0.2274300407052366
  0.6910390413316501  0.6257046344358014  0.7978269676453751
  0.1900912567439074  0.7229585546168233  0.2984216695400781
  0.6916701594059247  0.1244593445585947  0.7277497158002212
  0.1863869183430476  0.0858519047280573  0.0736174207230947
  0.6862794901936773  0.7656079326532403  0.9513351662930408
  0.1929100704280110  0.5827001146818722  0.4519367003490551
  0.6928094019473642  0.2619245782736669  0.5736060332131713
 
  0.00000000E+00  0.00000000E+00  0.00000000E+00
  0.00000000E+00  0.00000000E+00  0.00000000E+00
  0.00000000E+00  0.00000000E+00  0.00000000E+00
  0.00000000E+00  0.00000000E+00  0.00000000E+00
  0.00000000E+00  0.00000000E+00  0.00000000E+00
  0.00000000E+00  0.00000000E+00  0.00000000E+00
  0.00000000E+00  0.00000000E+00  0.00000000E+00
  0.00000000E+00  0.00000000E+00  0.00000000E+00
  0.00000000E+00  0.00000000E+00  0.00000000E+00
  0.00000000E+00  0.00000000E+00  0.00000000E+00
  0.00000000E+00  0.00000000E+00  0.00000000E+00
  0.00000000E+00  0.00000000E+00  0.00000000E+00
  0.00000000E+00  0.00000000E+00  0.00000000E+00
  0.00000000E+00  0.00000000E+00  0.00000000E+00
  0.00000000E+00  0.00000000E+00  0.00000000E+00
  0.00000000E+00  0.00000000E+00  0.00000000E+00
  0.00000000E+00  0.00000000E+00  0.00000000E+00
  0.00000000E+00  0.00000000E+00  0.00000000E+00
  0.00000000E+00  0.00000000E+00  0.00000000E+00
  0.00000000E+00  0.00000000E+00  0.00000000E+00
