Poscar file generated with pyiron       
   1.00000000000000     
     4.7856370000000004    0.0062090000000000    0.0752340000000000
    -0.0207410000000000   10.4692980000000002    0.3671050000000000
    -0.2772710000000000   -0.6269600000000000   17.8023899999999990
   Cs   I    Pb
     4    12     4
Direct
  0.6788599251894496  0.0342695800105730  0.3574527652337522
  0.1817462617709324  0.8714889276128304  0.7011493375663562
  0.6763088169790379  0.5346245645734058  0.2010015281573274
  0.1802347198646075  0.3710572029620707  0.8575168545356036
  0.6752846706638920  0.2918570761043000  0.0278295506548005
  0.1751598218005483  0.6138529768977534  0.0306325988780145
  0.6821407827345141  0.7921728001483999  0.5309207889953811
  0.1822173243764738  0.1140867375526184  0.5276476138896271
  0.1756409845711744  0.9874376773957536  0.9161469792415744
  0.6745931420554356  0.9183789131334450  0.1423800164780289
  0.1821068055236097  0.4874162138130984  0.6424260965198201
  0.6818649815638906  0.4187528338826638  0.4162100463589695
  0.1772874467160506  0.2516572452941261  0.2442045535537432
  0.6805001101586541  0.6540459822709153  0.8143991191734301
  0.1778217813813825  0.7516574399880653  0.3144948517826904
  0.6807950055414409  0.1543260275939105  0.7440845609583207
  0.1741489671810257  0.1128827779695740  0.0904774536551969
  0.6750307194582064  0.7929307094158631  0.9680803188405918
  0.1823526487673561  0.6130306864806485  0.4683494991562114
  0.6828262783509942  0.2930920912400268  0.5902892237557680
 
  0.00000000E+00  0.00000000E+00  0.00000000E+00
  0.00000000E+00  0.00000000E+00  0.00000000E+00
  0.00000000E+00  0.00000000E+00  0.00000000E+00
  0.00000000E+00  0.00000000E+00  0.00000000E+00
  0.00000000E+00  0.00000000E+00  0.00000000E+00
  0.00000000E+00  0.00000000E+00  0.00000000E+00
  0.00000000E+00  0.00000000E+00  0.00000000E+00
  0.00000000E+00  0.00000000E+00  0.00000000E+00
  0.00000000E+00  0.00000000E+00  0.00000000E+00
  0.00000000E+00  0.00000000E+00  0.00000000E+00
  0.00000000E+00  0.00000000E+00  0.00000000E+00
  0.00000000E+00  0.00000000E+00  0.00000000E+00
  0.00000000E+00  0.00000000E+00  0.00000000E+00
  0.00000000E+00  0.00000000E+00  0.00000000E+00
  0.00000000E+00  0.00000000E+00  0.00000000E+00
  0.00000000E+00  0.00000000E+00  0.00000000E+00
  0.00000000E+00  0.00000000E+00  0.00000000E+00
  0.00000000E+00  0.00000000E+00  0.00000000E+00
  0.00000000E+00  0.00000000E+00  0.00000000E+00
  0.00000000E+00  0.00000000E+00  0.00000000E+00
