Poscar file generated with pyiron       
   1.00000000000000     
     4.7871295745639104   -0.0891650007895314    0.0004167580099794
     0.1947602456432191   10.4648389720571959    0.2959046884996244
    -0.0147692647698441   -0.5005918922859901   17.8094300033330946
   Cs   I    Pb
     4    12     4
Direct
  0.6804864885077495  0.0045328156146065  0.3393952340813022
  0.1808953600619786  0.8408706779958933  0.6829399285082779
  0.6786034500172377  0.5059563332413688  0.1829298555172104
  0.1788261029434315  0.3421520652936418  0.8395785881517848
  0.6759051071475630  0.2637233647071267  0.0096834678512704
  0.1761271164369821  0.5857307865087987  0.0128626756501465
  0.6823449873436617  0.7605162521455522  0.5131050071890053
  0.1818396162041445  0.0829161681182690  0.5097906296127814
  0.1759383877991599  0.9587946197438426  0.8981335391721731
  0.6757786576859857  0.8901248117474884  0.1244051518539275
  0.1819781145834287  0.4559178627967019  0.6243948862308458
  0.6823770920983586  0.3874311203912600  0.3983959781939071
  0.1790752943228760  0.2228099130426582  0.2261952355979176
  0.6795088538524929  0.6249792137520677  0.7965507439106713
  0.1798062720754455  0.7217191381301311  0.2968823845025544
  0.6800602200020588  0.1238240468237961  0.7263191061106639
  0.1754530319110798  0.0846807620111514  0.0724048490419285
  0.6758770178416202  0.7646118474303272  0.9501090549113735
  0.1826794959175131  0.5817206818703184  0.4504115293422902
  0.6820243660934079  0.2616806705889947  0.5724186257211213
 
  0.00000000E+00  0.00000000E+00  0.00000000E+00
  0.00000000E+00  0.00000000E+00  0.00000000E+00
  0.00000000E+00  0.00000000E+00  0.00000000E+00
  0.00000000E+00  0.00000000E+00  0.00000000E+00
  0.00000000E+00  0.00000000E+00  0.00000000E+00
  0.00000000E+00  0.00000000E+00  0.00000000E+00
  0.00000000E+00  0.00000000E+00  0.00000000E+00
  0.00000000E+00  0.00000000E+00  0.00000000E+00
  0.00000000E+00  0.00000000E+00  0.00000000E+00
  0.00000000E+00  0.00000000E+00  0.00000000E+00
  0.00000000E+00  0.00000000E+00  0.00000000E+00
  0.00000000E+00  0.00000000E+00  0.00000000E+00
  0.00000000E+00  0.00000000E+00  0.00000000E+00
  0.00000000E+00  0.00000000E+00  0.00000000E+00
  0.00000000E+00  0.00000000E+00  0.00000000E+00
  0.00000000E+00  0.00000000E+00  0.00000000E+00
  0.00000000E+00  0.00000000E+00  0.00000000E+00
  0.00000000E+00  0.00000000E+00  0.00000000E+00
  0.00000000E+00  0.00000000E+00  0.00000000E+00
  0.00000000E+00  0.00000000E+00  0.00000000E+00
