Poscar file generated with pyiron       
   1.00000000000000     
     4.7877761752149972    0.0125308703790593    0.0610538133809835
    -0.0314860934502562   10.4652125502717208    0.3568880797795891
    -0.2307062144818963   -0.6017955179567842   17.8016908895528516
   Cs   I    Pb
     4    12     4
Direct
  0.7352594229356374  0.0917497874264258  0.3530081653574058
  0.2351630493275565  0.9267314350692842  0.6968189947946201
  0.7365008225415619  0.5940469962278855  0.1971695329954530
  0.2367466148719821  0.4290673290113363  0.8531849510498595
  0.7374962249332433  0.3527595541211014  0.0235668504566676
  0.2378672356477256  0.6740478884086325  0.0270996784500104
  0.7338991450466561  0.8466424707495374  0.5268680249697522
  0.2337117003229064  0.1683759532317907  0.5233775799367106
  0.2375570277032093  0.0469190449598667  0.9120909436146508
  0.7376717346333879  0.9789578858968285  0.1381368663427706
  0.2341632952196627  0.5417579461643148  0.6381953151947889
  0.7339020699170867  0.4738774019883640  0.4121356892777273
  0.2363329461044541  0.3110029574828466  0.2401162701268375
  0.7352366896068470  0.7117519880867630  0.8109471756817703
  0.2359964325788994  0.8089895862516092  0.3109647811923580
  0.7359384916074906  0.2099094399116354  0.7402484830257066
  0.2376027757196862  0.1735340132461407  0.0860793800823375
  0.7383525157974929  0.8525834031155682  0.9642650304402133
  0.2338129900075643  0.6679754717847446  0.4642752375745910
  0.7338132446601048  0.3472373396666507  0.5861742117850623
 
  0.00000000E+00  0.00000000E+00  0.00000000E+00
  0.00000000E+00  0.00000000E+00  0.00000000E+00
  0.00000000E+00  0.00000000E+00  0.00000000E+00
  0.00000000E+00  0.00000000E+00  0.00000000E+00
  0.00000000E+00  0.00000000E+00  0.00000000E+00
  0.00000000E+00  0.00000000E+00  0.00000000E+00
  0.00000000E+00  0.00000000E+00  0.00000000E+00
  0.00000000E+00  0.00000000E+00  0.00000000E+00
  0.00000000E+00  0.00000000E+00  0.00000000E+00
  0.00000000E+00  0.00000000E+00  0.00000000E+00
  0.00000000E+00  0.00000000E+00  0.00000000E+00
  0.00000000E+00  0.00000000E+00  0.00000000E+00
  0.00000000E+00  0.00000000E+00  0.00000000E+00
  0.00000000E+00  0.00000000E+00  0.00000000E+00
  0.00000000E+00  0.00000000E+00  0.00000000E+00
  0.00000000E+00  0.00000000E+00  0.00000000E+00
  0.00000000E+00  0.00000000E+00  0.00000000E+00
  0.00000000E+00  0.00000000E+00  0.00000000E+00
  0.00000000E+00  0.00000000E+00  0.00000000E+00
  0.00000000E+00  0.00000000E+00  0.00000000E+00
