Poscar file generated with pyiron       
   1.00000000000000     
     4.7825369999999996    0.0128350000000000    0.1676840000000000
    -0.0341150000000000   10.4761590000000009    0.2019530000000000
    -0.6260700000000000   -0.3472560000000000   17.7930999999999990
   Cs   I    Pb
     4    12     4
Direct
  0.6473386943084378  0.0598177078169755  0.3625682010741400
  0.1475587837325492  0.8997105406484565  0.7059010946546351
  0.6476257137800800  0.5618436000622680  0.2057510266475688
  0.1473380446197083  0.4012809483753301  0.8624674489976769
  0.6489791152819322  0.3216662067457108  0.0328115774118700
  0.1493531737198524  0.6444644832347421  0.0358679734971190
  0.6481677111466055  0.8173168678668858  0.5362872793894837
  0.1479002667217486  0.1400914006716505  0.5324930063615483
  0.1496793041804665  0.0176097726645281  0.9212059184543619
  0.6490117745913437  0.9480732559262606  0.1473490970498332
  0.1484988624307491  0.5136500815345997  0.6471938513085576
  0.6476441255629126  0.4446607469877790  0.4211151744099766
  0.1477942923647149  0.2791846816799151  0.2500141164895382
  0.6480440959720539  0.6838557768289064  0.8193604291635097
  0.1475564733601757  0.7777575003888444  0.3192332477091142
  0.6474137347194358  0.1823778280833039  0.7495002680115235
  0.1491664920524514  0.1426336682183731  0.0956727255306902
  0.6498444167438180  0.8233450103902626  0.9730928299642656
  0.1476958780429882  0.6387788857045322  0.4731349144151125
  0.6482065299053303  0.3192289528118764  0.5952577813180184
 
  0.00000000E+00  0.00000000E+00  0.00000000E+00
  0.00000000E+00  0.00000000E+00  0.00000000E+00
  0.00000000E+00  0.00000000E+00  0.00000000E+00
  0.00000000E+00  0.00000000E+00  0.00000000E+00
  0.00000000E+00  0.00000000E+00  0.00000000E+00
  0.00000000E+00  0.00000000E+00  0.00000000E+00
  0.00000000E+00  0.00000000E+00  0.00000000E+00
  0.00000000E+00  0.00000000E+00  0.00000000E+00
  0.00000000E+00  0.00000000E+00  0.00000000E+00
  0.00000000E+00  0.00000000E+00  0.00000000E+00
  0.00000000E+00  0.00000000E+00  0.00000000E+00
  0.00000000E+00  0.00000000E+00  0.00000000E+00
  0.00000000E+00  0.00000000E+00  0.00000000E+00
  0.00000000E+00  0.00000000E+00  0.00000000E+00
  0.00000000E+00  0.00000000E+00  0.00000000E+00
  0.00000000E+00  0.00000000E+00  0.00000000E+00
  0.00000000E+00  0.00000000E+00  0.00000000E+00
  0.00000000E+00  0.00000000E+00  0.00000000E+00
  0.00000000E+00  0.00000000E+00  0.00000000E+00
  0.00000000E+00  0.00000000E+00  0.00000000E+00
