Poscar file generated with pyiron       
   1.00000000000000     
     4.7871040000000002    0.0425910000000000    0.0132290000000000
    -0.0938290000000000   10.4622080000000004    0.3061280000000000
    -0.0534220000000000   -0.5251430000000000   17.8047590000000007
   Cs   I    Pb
     4    12     4
Direct
  0.6862948734946599  0.0346463131530825  0.3565597702294312
  0.1867736853233382  0.8707517925635244  0.6999541982898307
  0.6847709236181601  0.5343007864425147  0.1999985581265307
  0.1847042548926936  0.3707180193024371  0.8565353003189742
  0.6828707768810816  0.2909896565233510  0.0265726965639530
  0.1826443134646496  0.6133986470021924  0.0298233011454485
  0.6882528267854084  0.7916108846419050  0.5298626584382689
  0.1882590923155121  0.1138410710590350  0.5265823701481338
  0.1824520511348027  0.9864555667649881  0.9150219976937422
  0.6828727486972284  0.9180069031361313  0.1413464736016152
  0.1882034210217256  0.4870382167803839  0.6412673739024015
  0.6886064181130322  0.4184476589188151  0.4150865546909728
  0.1852721253241754  0.2514509783286272  0.2430118045213874
  0.6853768732929524  0.6533711374204572  0.8132713739463426
  0.1857063347102326  0.7516446398336356  0.3134342803413972
  0.6858829039980989  0.1536748158929342  0.7429492081498026
  0.1827925421006213  0.1121964645255247  0.0892936741094985
  0.6824057160478958  0.7921220112634444  0.9670892242466351
  0.1885603035936114  0.6128170536131634  0.4671841671632038
  0.6883561155478048  0.2927399420825765  0.5892293614325723
 
  0.00000000E+00  0.00000000E+00  0.00000000E+00
  0.00000000E+00  0.00000000E+00  0.00000000E+00
  0.00000000E+00  0.00000000E+00  0.00000000E+00
  0.00000000E+00  0.00000000E+00  0.00000000E+00
  0.00000000E+00  0.00000000E+00  0.00000000E+00
  0.00000000E+00  0.00000000E+00  0.00000000E+00
  0.00000000E+00  0.00000000E+00  0.00000000E+00
  0.00000000E+00  0.00000000E+00  0.00000000E+00
  0.00000000E+00  0.00000000E+00  0.00000000E+00
  0.00000000E+00  0.00000000E+00  0.00000000E+00
  0.00000000E+00  0.00000000E+00  0.00000000E+00
  0.00000000E+00  0.00000000E+00  0.00000000E+00
  0.00000000E+00  0.00000000E+00  0.00000000E+00
  0.00000000E+00  0.00000000E+00  0.00000000E+00
  0.00000000E+00  0.00000000E+00  0.00000000E+00
  0.00000000E+00  0.00000000E+00  0.00000000E+00
  0.00000000E+00  0.00000000E+00  0.00000000E+00
  0.00000000E+00  0.00000000E+00  0.00000000E+00
  0.00000000E+00  0.00000000E+00  0.00000000E+00
  0.00000000E+00  0.00000000E+00  0.00000000E+00
