Poscar file generated with pyiron       
   1.00000000000000     
     4.7836351065415226    0.0434777335754672    0.1554781027178848
    -0.1033369749598755   10.4690664197762704    0.3292157892618523
    -0.5845302670094619   -0.5660503979445284   17.7954732177798043
   Cs   I    Pb
     4    12     4
Direct
  0.6672645809558998  0.9809866282396008  0.3411578304335596
  0.1690428795147889  0.8165047736091415  0.6847266893460133
  0.6658183210096962  0.4818713851753893  0.1847892500550606
  0.1691902581002474  0.3180991407371441  0.8411123446923565
  0.6673820631866351  0.2396791574047724  0.0111301851062428
  0.1668161080050879  0.5617332247857683  0.0146446364402190
  0.6693638913299779  0.7369157223170816  0.5149363213091152
  0.1691691538202926  0.0585956601712706  0.5113888575856229
  0.1668857378409803  0.9347076079644038  0.8996713419138572
  0.6670052678861417  0.8661595078904964  0.1259239688074201
  0.1696469869618234  0.4319541877258589  0.6261823516944355
  0.6692401033094435  0.3638571751304028  0.4000650755879306
  0.1667115590815967  0.1986993150781179  0.2276501597396955
  0.6687961527926706  0.6007047019861476  0.7983394919873004
  0.1667483599299309  0.6980303397653379  0.2986857972093925
  0.6691829773814956  0.0993603590732618  0.7280025615380239
  0.1671155642932620  0.0606075122603184  0.0737359607585446
  0.6665520446913252  0.7405434376224072  0.9518671543926401
  0.1695323762255873  0.5581331898229303  0.4522097336859787
  0.6697015637633089  0.2374718607687278  0.5741909467279684
 
  0.00000000E+00  0.00000000E+00  0.00000000E+00
  0.00000000E+00  0.00000000E+00  0.00000000E+00
  0.00000000E+00  0.00000000E+00  0.00000000E+00
  0.00000000E+00  0.00000000E+00  0.00000000E+00
  0.00000000E+00  0.00000000E+00  0.00000000E+00
  0.00000000E+00  0.00000000E+00  0.00000000E+00
  0.00000000E+00  0.00000000E+00  0.00000000E+00
  0.00000000E+00  0.00000000E+00  0.00000000E+00
  0.00000000E+00  0.00000000E+00  0.00000000E+00
  0.00000000E+00  0.00000000E+00  0.00000000E+00
  0.00000000E+00  0.00000000E+00  0.00000000E+00
  0.00000000E+00  0.00000000E+00  0.00000000E+00
  0.00000000E+00  0.00000000E+00  0.00000000E+00
  0.00000000E+00  0.00000000E+00  0.00000000E+00
  0.00000000E+00  0.00000000E+00  0.00000000E+00
  0.00000000E+00  0.00000000E+00  0.00000000E+00
  0.00000000E+00  0.00000000E+00  0.00000000E+00
  0.00000000E+00  0.00000000E+00  0.00000000E+00
  0.00000000E+00  0.00000000E+00  0.00000000E+00
  0.00000000E+00  0.00000000E+00  0.00000000E+00
