Poscar file generated with pyiron       
   1.00000000000000     
     4.7772251229561151    0.0836986650186015    0.2566721507129375
    -0.1979797255667782   10.4735651037133533    0.2664029479567496
    -0.9489925944570485   -0.4678775506407311   17.7818083658477768
   Cs   I    Pb
     4    12     4
Direct
  0.6521787928603948  0.0049117741718044  0.3485398962343057
  0.1488859516974804  0.8438634287323222  0.6917971777694762
  0.6542947620686443  0.5047657123803970  0.1917743498320999
  0.1513085291574798  0.3435949739223107  0.8485718620343188
  0.6555386737350556  0.2627982561462276  0.0186683227190603
  0.1555834367798504  0.5853979390032135  0.0216383502062024
  0.6472704127144002  0.7631088978326983  0.5217580308942117
  0.1476623532817311  0.0856780998899022  0.5187150572357528
  0.1554061939001657  0.9589398220985652  0.9070994303054569
  0.6559689890704991  0.8893475407565944  0.1332702169932111
  0.1469285224833746  0.4592007389550501  0.6332676496657094
  0.6478005237217730  0.3896255014847375  0.4071371729594987
  0.1540138301266564  0.2221018768607023  0.2352493984916663
  0.6507424282377772  0.6264199417442743  0.8050690453999755
  0.1529752602304836  0.7221615176642827  0.3050295642290745
  0.6495007127784174  0.1265429614249685  0.7353548629435672
  0.1561318457749115  0.0836455254258884  0.0814136912117050
  0.6556061119344677  0.7645449758352650  0.9589374297493529
  0.1474232174339677  0.5841062394093046  0.4590030991368057
  0.6470481246181015  0.2647211612374365  0.5813600269967651
 
  0.00000000E+00  0.00000000E+00  0.00000000E+00
  0.00000000E+00  0.00000000E+00  0.00000000E+00
  0.00000000E+00  0.00000000E+00  0.00000000E+00
  0.00000000E+00  0.00000000E+00  0.00000000E+00
  0.00000000E+00  0.00000000E+00  0.00000000E+00
  0.00000000E+00  0.00000000E+00  0.00000000E+00
  0.00000000E+00  0.00000000E+00  0.00000000E+00
  0.00000000E+00  0.00000000E+00  0.00000000E+00
  0.00000000E+00  0.00000000E+00  0.00000000E+00
  0.00000000E+00  0.00000000E+00  0.00000000E+00
  0.00000000E+00  0.00000000E+00  0.00000000E+00
  0.00000000E+00  0.00000000E+00  0.00000000E+00
  0.00000000E+00  0.00000000E+00  0.00000000E+00
  0.00000000E+00  0.00000000E+00  0.00000000E+00
  0.00000000E+00  0.00000000E+00  0.00000000E+00
  0.00000000E+00  0.00000000E+00  0.00000000E+00
  0.00000000E+00  0.00000000E+00  0.00000000E+00
  0.00000000E+00  0.00000000E+00  0.00000000E+00
  0.00000000E+00  0.00000000E+00  0.00000000E+00
  0.00000000E+00  0.00000000E+00  0.00000000E+00
