Poscar file generated with pyiron       
   1.00000000000000     
     4.7835747235170478    0.0234639697668464   -0.1575202654520282
    -0.0495965456851448   10.4692919239619311    0.2011134032200651
     0.5862495325927857   -0.3380417159887325   17.8026320453115723
   Cs   I    Pb
     4    12     4
Direct
  0.6716229151795856  0.0288739362418229  0.3532238477188547
  0.1759193104377272  0.8670185326098412  0.6963942781877147
  0.6708101708926344  0.5292793676305602  0.1963688428511253
  0.1732668831709521  0.3673115758673795  0.8532788682536143
  0.6702115050627182  0.2870776923632591  0.0234056898700977
  0.1706491279384996  0.6096086310391163  0.0261934204928492
  0.6754960420519768  0.7862223197815174  0.5263795821441023
  0.1745470962562497  0.1085779902437637  0.5233475912193430
  0.1706984461132360  0.9831780182366261  0.9116462889283266
  0.6699982859938337  0.9134125201322258  0.1378945999645195
  0.1745214598806756  0.4822653607294490  0.6379070451334207
  0.6752474043449380  0.4127375637828120  0.4116556765210539
  0.1709006788579479  0.2463511017294153  0.2399033172475849
  0.6742331005030274  0.6501124917948657  0.8096546360874631
  0.1716784636829294  0.7459606564339121  0.3098902713175210
  0.6742589900211091  0.1499139849332700  0.7399498334383421
  0.1695838639050051  0.1079790221037113  0.0860565650069235
  0.6705139001306138  0.7887330346286620  0.9634970352798002
  0.1756369200984009  0.6071751426622910  0.4636579323319741
  0.6744402091894091  0.2878154638433176  0.5859748022577773
 
  0.00000000E+00  0.00000000E+00  0.00000000E+00
  0.00000000E+00  0.00000000E+00  0.00000000E+00
  0.00000000E+00  0.00000000E+00  0.00000000E+00
  0.00000000E+00  0.00000000E+00  0.00000000E+00
  0.00000000E+00  0.00000000E+00  0.00000000E+00
  0.00000000E+00  0.00000000E+00  0.00000000E+00
  0.00000000E+00  0.00000000E+00  0.00000000E+00
  0.00000000E+00  0.00000000E+00  0.00000000E+00
  0.00000000E+00  0.00000000E+00  0.00000000E+00
  0.00000000E+00  0.00000000E+00  0.00000000E+00
  0.00000000E+00  0.00000000E+00  0.00000000E+00
  0.00000000E+00  0.00000000E+00  0.00000000E+00
  0.00000000E+00  0.00000000E+00  0.00000000E+00
  0.00000000E+00  0.00000000E+00  0.00000000E+00
  0.00000000E+00  0.00000000E+00  0.00000000E+00
  0.00000000E+00  0.00000000E+00  0.00000000E+00
  0.00000000E+00  0.00000000E+00  0.00000000E+00
  0.00000000E+00  0.00000000E+00  0.00000000E+00
  0.00000000E+00  0.00000000E+00  0.00000000E+00
  0.00000000E+00  0.00000000E+00  0.00000000E+00
