Poscar file generated with pyiron       
   1.00000000000000     
     4.7848350000000002    0.0510820000000000    0.1299570000000000
    -0.1235880000000000   10.4653240000000007    0.3108930000000000
    -0.4812010000000000   -0.5361910000000000   17.8014720000000004
   Cs   I    Pb
     4    12     4
Direct
  0.6578553174492825  0.0411566535677395  0.3583266244287984
  0.1593171925320291  0.8775923925435549  0.7021621425449567
  0.6556979576129862  0.5404660786056965  0.2021154638385312
  0.1572373423820252  0.3763251975590336  0.8585721931562560
  0.6525829034711350  0.2967189605893878  0.0286764771661367
  0.1526449399711112  0.6185325320501818  0.0317406113376464
  0.6611806072795403  0.7991942946694053  0.5318860921375119
  0.1611553126815863  0.1210526313329368  0.5286044847936537
  0.1527912068847428  0.9921477044088505  0.9172908669412294
  0.6521998036514844  0.9234665668816717  0.1432721716054743
  0.1613505051419324  0.4940746362079480  0.6434368837808790
  0.6610494148390984  0.4257647097683162  0.4173968931435539
  0.1563002995077412  0.2577450322552011  0.2448620953669192
  0.6580207604278456  0.6594178338878649  0.8152764616110773
  0.1573681415711050  0.7581681135410818  0.3154819366971680
  0.6588136184019717  0.1603622225965964  0.7448594202849748
  0.1518442004792746  0.1179563386282396  0.0913737911161476
  0.6523336395720349  0.7976301077844141  0.9691176759778912
  0.1615919821767662  0.6201095246914932  0.4694373449918032
  0.6616895977820008  0.2997786412589818  0.5912672419198017
 
  0.00000000E+00  0.00000000E+00  0.00000000E+00
  0.00000000E+00  0.00000000E+00  0.00000000E+00
  0.00000000E+00  0.00000000E+00  0.00000000E+00
  0.00000000E+00  0.00000000E+00  0.00000000E+00
  0.00000000E+00  0.00000000E+00  0.00000000E+00
  0.00000000E+00  0.00000000E+00  0.00000000E+00
  0.00000000E+00  0.00000000E+00  0.00000000E+00
  0.00000000E+00  0.00000000E+00  0.00000000E+00
  0.00000000E+00  0.00000000E+00  0.00000000E+00
  0.00000000E+00  0.00000000E+00  0.00000000E+00
  0.00000000E+00  0.00000000E+00  0.00000000E+00
  0.00000000E+00  0.00000000E+00  0.00000000E+00
  0.00000000E+00  0.00000000E+00  0.00000000E+00
  0.00000000E+00  0.00000000E+00  0.00000000E+00
  0.00000000E+00  0.00000000E+00  0.00000000E+00
  0.00000000E+00  0.00000000E+00  0.00000000E+00
  0.00000000E+00  0.00000000E+00  0.00000000E+00
  0.00000000E+00  0.00000000E+00  0.00000000E+00
  0.00000000E+00  0.00000000E+00  0.00000000E+00
  0.00000000E+00  0.00000000E+00  0.00000000E+00
