Poscar file generated with pyiron       
   1.00000000000000     
     4.7863519727420663    0.0649202273003589    0.1078990312674664
    -0.1525147409511518   10.4618037260551411    0.3955232604152503
    -0.3995897280715547   -0.6654144911489542   17.7891283297799383
   Cs   I    Pb
     4    12     4
Direct
  0.6714667097591609  0.0074722489690396  0.3431303325521675
  0.1728060085203014  0.8419477040633752  0.6870117961543430
  0.6708754228236685  0.5093197749909987  0.1869868427034850
  0.1737635664966889  0.3433899795597307  0.8431663842236012
  0.6723261992201511  0.2668872446368553  0.0134870057066078
  0.1714326555375886  0.5883757552132660  0.0171600029959009
  0.6713418622340612  0.7623123559953063  0.5170177690198983
  0.1723384312386152  0.0838323808134100  0.5133304518400781
  0.1713127334242424  0.9616456020899913  0.9020152805239973
  0.6721022743464975  0.8936302726469668  0.1282086151833628
  0.1723445642629217  0.4571842674954403  0.6282582064710106
  0.6708520675402828  0.3897485173805437  0.4020003630660781
  0.1712558178951781  0.2261598265761584  0.2298696255779510
  0.6730465430271719  0.6264210136403752  0.8009394385159851
  0.1711166840481514  0.7247245469587582  0.3009413048423781
  0.6734542739884519  0.1247431707518771  0.7299986143768200
  0.1720048608490823  0.0878898910990381  0.0760306747463491
  0.6712999692354680  0.7670906111674214  0.9542483207238751
  0.1706806870957430  0.5838788108535596  0.4543135467641778
  0.6727277711131391  0.2628785479965050  0.5759417015334579
 
  0.00000000E+00  0.00000000E+00  0.00000000E+00
  0.00000000E+00  0.00000000E+00  0.00000000E+00
  0.00000000E+00  0.00000000E+00  0.00000000E+00
  0.00000000E+00  0.00000000E+00  0.00000000E+00
  0.00000000E+00  0.00000000E+00  0.00000000E+00
  0.00000000E+00  0.00000000E+00  0.00000000E+00
  0.00000000E+00  0.00000000E+00  0.00000000E+00
  0.00000000E+00  0.00000000E+00  0.00000000E+00
  0.00000000E+00  0.00000000E+00  0.00000000E+00
  0.00000000E+00  0.00000000E+00  0.00000000E+00
  0.00000000E+00  0.00000000E+00  0.00000000E+00
  0.00000000E+00  0.00000000E+00  0.00000000E+00
  0.00000000E+00  0.00000000E+00  0.00000000E+00
  0.00000000E+00  0.00000000E+00  0.00000000E+00
  0.00000000E+00  0.00000000E+00  0.00000000E+00
  0.00000000E+00  0.00000000E+00  0.00000000E+00
  0.00000000E+00  0.00000000E+00  0.00000000E+00
  0.00000000E+00  0.00000000E+00  0.00000000E+00
  0.00000000E+00  0.00000000E+00  0.00000000E+00
  0.00000000E+00  0.00000000E+00  0.00000000E+00
