Poscar file generated with pyiron       
   1.00000000000000     
     4.7820593081172191    0.0203744843519596    0.2315388696718803
    -0.0572851219338104   10.4676241798866432    0.2319283363569200
    -0.8581460878737339   -0.3995121716744595   17.7847115504949116
   Cs   I    Pb
     4    12     4
Direct
  0.6846562075914923  0.0690017389318383  0.3570868620051286
  0.1859229270072323  0.9060179304134606  0.7004408678244277
  0.6854293912677630  0.5711740494454024  0.2003013449959851
  0.1867546232733517  0.4079857744260610  0.8568935098120052
  0.6873688419055245  0.3304145652293150  0.0272843887143934
  0.1870324897721683  0.6524084542395526  0.0306281558715110
  0.6841895791956991  0.8247656169583599  0.5305153847239867
  0.1840482151912644  0.1468264296802371  0.5272643065347123
  0.1873347099110650  0.0253673916748174  0.9156362041128160
  0.6871043653308655  0.9565553029120836  0.1419161157770564
  0.1841125200012609  0.5205020098896223  0.6419263142169362
  0.6837587328038205  0.4517474489570297  0.4156572510449118
  0.1851201155555143  0.2879650156833366  0.2440984212222198
  0.6852768618305708  0.6907431259293605  0.8143597732939946
  0.1851490577404481  0.7863127035580096  0.3142563266297148
  0.6851549353553695  0.1888814642523226  0.7441244600232683
  0.1867098661828484  0.1511192641006135  0.0899594213032819
  0.6867692152754908  0.8311057167991401  0.9677792366549522
  0.1836047373630958  0.6460551021260791  0.4677770324248370
  0.6837135502883757  0.3259621950158735  0.5899042000272758
 
  0.00000000E+00  0.00000000E+00  0.00000000E+00
  0.00000000E+00  0.00000000E+00  0.00000000E+00
  0.00000000E+00  0.00000000E+00  0.00000000E+00
  0.00000000E+00  0.00000000E+00  0.00000000E+00
  0.00000000E+00  0.00000000E+00  0.00000000E+00
  0.00000000E+00  0.00000000E+00  0.00000000E+00
  0.00000000E+00  0.00000000E+00  0.00000000E+00
  0.00000000E+00  0.00000000E+00  0.00000000E+00
  0.00000000E+00  0.00000000E+00  0.00000000E+00
  0.00000000E+00  0.00000000E+00  0.00000000E+00
  0.00000000E+00  0.00000000E+00  0.00000000E+00
  0.00000000E+00  0.00000000E+00  0.00000000E+00
  0.00000000E+00  0.00000000E+00  0.00000000E+00
  0.00000000E+00  0.00000000E+00  0.00000000E+00
  0.00000000E+00  0.00000000E+00  0.00000000E+00
  0.00000000E+00  0.00000000E+00  0.00000000E+00
  0.00000000E+00  0.00000000E+00  0.00000000E+00
  0.00000000E+00  0.00000000E+00  0.00000000E+00
  0.00000000E+00  0.00000000E+00  0.00000000E+00
  0.00000000E+00  0.00000000E+00  0.00000000E+00
