Poscar file generated with pyiron       
   1.00000000000000     
     4.7848344054354932   -0.0308922212552775    0.1170047360634655
     0.0630241066944057   10.4777902841589441    0.2501150881633609
    -0.4459656253442911   -0.4274265612299932   17.7917150054204107
   Cs   I    Pb
     4    12     4
Direct
  0.6231039945437681  0.0486818784359816  0.3660881819263039
  0.1225934810336839  0.8875311557123222  0.7095606088914358
  0.6211944525776735  0.5476271065533794  0.2094312298130078
  0.1210881665315909  0.3864159422094710  0.8661911520399378
  0.6197309671729077  0.3050191658880439  0.0360270043182635
  0.1200429589130988  0.6276812546420429  0.0395559458939562
  0.6231375211353577  0.8078846545770396  0.5392844166307147
  0.1232310604947157  0.1302877186594669  0.5360247996194231
  0.1197332713620948  0.0006523327243145  0.9247027571365332
  0.6199817823602537  0.9324110033877054  0.1510354971898192
  0.1231326402381809  0.5031746774102396  0.6509404307178559
  0.6231567801125394  0.4344014955505618  0.4246541595569969
  0.1220491771363895  0.2654044921437657  0.2528769426994228
  0.6218070651865295  0.6689126724399427  0.8225454928752531
  0.1222769704114482  0.7660387585847013  0.3223952752333854
  0.6225761617608265  0.1700104755860752  0.7527405107467373
  0.1193816786358574  0.1263330515470081  0.0989674921158673
  0.6198799697233350  0.8064831107331167  0.9766975706363116
  0.1233726044147087  0.6287051339696637  0.4766229981248852
  0.6233288951553522  0.3091138984756232  0.5988619415982563
 
  0.00000000E+00  0.00000000E+00  0.00000000E+00
  0.00000000E+00  0.00000000E+00  0.00000000E+00
  0.00000000E+00  0.00000000E+00  0.00000000E+00
  0.00000000E+00  0.00000000E+00  0.00000000E+00
  0.00000000E+00  0.00000000E+00  0.00000000E+00
  0.00000000E+00  0.00000000E+00  0.00000000E+00
  0.00000000E+00  0.00000000E+00  0.00000000E+00
  0.00000000E+00  0.00000000E+00  0.00000000E+00
  0.00000000E+00  0.00000000E+00  0.00000000E+00
  0.00000000E+00  0.00000000E+00  0.00000000E+00
  0.00000000E+00  0.00000000E+00  0.00000000E+00
  0.00000000E+00  0.00000000E+00  0.00000000E+00
  0.00000000E+00  0.00000000E+00  0.00000000E+00
  0.00000000E+00  0.00000000E+00  0.00000000E+00
  0.00000000E+00  0.00000000E+00  0.00000000E+00
  0.00000000E+00  0.00000000E+00  0.00000000E+00
  0.00000000E+00  0.00000000E+00  0.00000000E+00
  0.00000000E+00  0.00000000E+00  0.00000000E+00
  0.00000000E+00  0.00000000E+00  0.00000000E+00
  0.00000000E+00  0.00000000E+00  0.00000000E+00
