Poscar file generated with pyiron       
   1.00000000000000     
     4.7806540000000002    0.0465790000000000    0.2167990000000000
    -0.1126150000000000   10.4748730000000005    0.2704740000000000
    -0.7961440000000000   -0.4665210000000000   17.7900959999999984
   Cs   I    Pb
     4    12     4
Direct
  0.6678201178768930  0.9878576236657963  0.3439736852128021
  0.1653643047259550  0.8261775122246320  0.6873377957285811
  0.6693829366268744  0.4880875364399770  0.1872027634358417
  0.1674100955421878  0.3258893040966058  0.8440167738551310
  0.6708811989708110  0.2449817862629260  0.0141223326161608
  0.1704786131786662  0.5676338688049256  0.0170118850780909
  0.6641415443129191  0.7458987216491622  0.5172978941931916
  0.1638430775436319  0.0683751091495211  0.5139375829451183
  0.1704436131789393  0.9411293675144847  0.9025178661733833
  0.6706385497653855  0.8714371181156153  0.1286340349004647
  0.1636038234274295  0.4413823645913553  0.6287644642882668
  0.6645162584522595  0.3726336561952905  0.4025173828514284
  0.1692903997026889  0.2049055222714458  0.2305482536402934
  0.6670318624626788  0.6084608382752918  0.8003273636403065
  0.1686199248832878  0.7048723824830603  0.3006589154620372
  0.6661280872332114  0.1089428781054522  0.7306538417926021
  0.1710989972243908  0.0660111240439250  0.0768632932066211
  0.6709648751927872  0.7466287563104075  0.9542357541714352
  0.1639614637500912  0.5667938137899995  0.4546113348174146
  0.6635233781121173  0.2472337870130872  0.5767353723112123
 
  0.00000000E+00  0.00000000E+00  0.00000000E+00
  0.00000000E+00  0.00000000E+00  0.00000000E+00
  0.00000000E+00  0.00000000E+00  0.00000000E+00
  0.00000000E+00  0.00000000E+00  0.00000000E+00
  0.00000000E+00  0.00000000E+00  0.00000000E+00
  0.00000000E+00  0.00000000E+00  0.00000000E+00
  0.00000000E+00  0.00000000E+00  0.00000000E+00
  0.00000000E+00  0.00000000E+00  0.00000000E+00
  0.00000000E+00  0.00000000E+00  0.00000000E+00
  0.00000000E+00  0.00000000E+00  0.00000000E+00
  0.00000000E+00  0.00000000E+00  0.00000000E+00
  0.00000000E+00  0.00000000E+00  0.00000000E+00
  0.00000000E+00  0.00000000E+00  0.00000000E+00
  0.00000000E+00  0.00000000E+00  0.00000000E+00
  0.00000000E+00  0.00000000E+00  0.00000000E+00
  0.00000000E+00  0.00000000E+00  0.00000000E+00
  0.00000000E+00  0.00000000E+00  0.00000000E+00
  0.00000000E+00  0.00000000E+00  0.00000000E+00
  0.00000000E+00  0.00000000E+00  0.00000000E+00
  0.00000000E+00  0.00000000E+00  0.00000000E+00
