SYSTEM=ref_B3LYPD3_HSE #jobname
PREC=Normal
ALGO=Normal
LREAL=.FALSE.
LWAVE=.FALSE.
LORBIT=11
ISMEAR=0
LASPH=.TRUE.
EDIFF=1e-05
ENCUT=600
SIGMA=0.05
LCHARG=.FALSE.
ISPIN=1
IVDW=12
NBANDS=108
LHFCALC=.TRUE.
GGA=B3
AEXX=0.2
AGGAX=0.72
AGGAC=0.81
ALDAC=0.19
HFSCREEN=0.2
PRECFOCK=Fast
HFRCUT=0
NCORE=1
VDW_S8=1.9889
VDW_A1=0.3981
VDW_A2=4.4211
ISTART=1
