Poscar file generated with pyiron       
   1.00000000000000     
     8.4722818696584881    0.0119028055821892   -0.4200890684823829
     0.0083477493945838    8.9689154307005730    0.4627917678476584
     0.6200178237320384   -0.6462053445806327   12.4431930868598108
   Cs   I    Pb
     4    12     4
Direct
  0.1284702747684867  0.3133606006464931  0.2178329354365890
  0.0737430824103946  0.4704211826165003  0.7178996652735458
  0.6289713016604519  0.9718339277294530  0.7173503418867607
  0.5733380541674102  0.8143239167159957  0.2173182120188780
  0.4128026839071157  0.0870992765723781  0.4272850633840261
  0.7897737768530372  0.6982873285830365  0.5081748406975138
  0.9128943999974334  0.1978994850599240  0.5078541273530388
  0.2899601297135890  0.5869496283939624  0.4270512925832706
  0.7889901428205464  0.6982798421357789  0.9269641939651387
  0.4122361956624109  0.0875333779396486  0.0076653662942611
  0.2887234534114956  0.5869782454835361  0.0081137406181637
  0.9120282487554016  0.1978055192238373  0.9276276034071059
  0.1842227110479104  0.8872960622546006  0.7174274432154131
  0.0185235663290251  0.8962034238035688  0.2176244865871567
  0.6841161161032148  0.3979110567586247  0.2172183244607437
  0.5188353556108519  0.3887062706266094  0.7173050727077764
  0.1013188709046965  0.8924416209207774  0.4675516220093628
  0.6015083344796539  0.3928680501014238  0.4674659144396249
  0.1006841048926489  0.8922134289317203  0.9671856896303072
  0.6007636094569762  0.3926543269850910  0.9674683250083604
 
  0.00000000E+00  0.00000000E+00  0.00000000E+00
  0.00000000E+00  0.00000000E+00  0.00000000E+00
  0.00000000E+00  0.00000000E+00  0.00000000E+00
  0.00000000E+00  0.00000000E+00  0.00000000E+00
  0.00000000E+00  0.00000000E+00  0.00000000E+00
  0.00000000E+00  0.00000000E+00  0.00000000E+00
  0.00000000E+00  0.00000000E+00  0.00000000E+00
  0.00000000E+00  0.00000000E+00  0.00000000E+00
  0.00000000E+00  0.00000000E+00  0.00000000E+00
  0.00000000E+00  0.00000000E+00  0.00000000E+00
  0.00000000E+00  0.00000000E+00  0.00000000E+00
  0.00000000E+00  0.00000000E+00  0.00000000E+00
  0.00000000E+00  0.00000000E+00  0.00000000E+00
  0.00000000E+00  0.00000000E+00  0.00000000E+00
  0.00000000E+00  0.00000000E+00  0.00000000E+00
  0.00000000E+00  0.00000000E+00  0.00000000E+00
  0.00000000E+00  0.00000000E+00  0.00000000E+00
  0.00000000E+00  0.00000000E+00  0.00000000E+00
  0.00000000E+00  0.00000000E+00  0.00000000E+00
  0.00000000E+00  0.00000000E+00  0.00000000E+00
