Poscar file generated with pyiron       
   1.00000000000000     
     8.8520155206175648    0.1630824192040673   -0.1447547012603166
     0.1888702745186963    8.8458738789732116    0.3563744176227190
     0.3777400338336331   -0.3766333772979808   12.3096081398998507
   Cs   I    Pb
     4    12     4
Direct
  0.0670025576222775  0.3529442524246550  0.2023944212201758
  0.0686098789537797  0.3517494475135109  0.7226052389173518
  0.5670460505334383  0.8525579171038187  0.7013620850280878
  0.5688021951034840  0.8518260808806374  0.2218441260307632
  0.3409730076949115  0.0790620032479076  0.4630218423322189
  0.7937933639200468  0.6262931141570423  0.4610513334737163
  0.8367430154587323  0.1223033679304344  0.5277773485749701
  0.2986182144803433  0.5835649006217858  0.3967080710524591
  0.8419499605694587  0.5780920128531164  0.9633904426673017
  0.2937014979680697  0.1263933869153330  0.9618490576060396
  0.3371243279411468  0.6220868019806787  0.0275154418828233
  0.7978347102761406  0.0821807425173985  0.8966662320971051
  0.1330631856030736  0.7854252619401426  0.7120695216860261
  0.0023024332374942  0.9191041540724499  0.2123461306972510
  0.6332226649325235  0.2853691566550738  0.2122014774907144
  0.5026904763121179  0.4192201860436593  0.7124736991081407
  0.0673529991313908  0.8526875292601189  0.4622841054121878
  0.5673446091077976  0.3526208535924961  0.4622269469789236
  0.0676248100256802  0.8524482881059673  0.9621907718303115
  0.5677578959194544  0.3523210360459079  0.9623943618119556
 
  0.00000000E+00  0.00000000E+00  0.00000000E+00
  0.00000000E+00  0.00000000E+00  0.00000000E+00
  0.00000000E+00  0.00000000E+00  0.00000000E+00
  0.00000000E+00  0.00000000E+00  0.00000000E+00
  0.00000000E+00  0.00000000E+00  0.00000000E+00
  0.00000000E+00  0.00000000E+00  0.00000000E+00
  0.00000000E+00  0.00000000E+00  0.00000000E+00
  0.00000000E+00  0.00000000E+00  0.00000000E+00
  0.00000000E+00  0.00000000E+00  0.00000000E+00
  0.00000000E+00  0.00000000E+00  0.00000000E+00
  0.00000000E+00  0.00000000E+00  0.00000000E+00
  0.00000000E+00  0.00000000E+00  0.00000000E+00
  0.00000000E+00  0.00000000E+00  0.00000000E+00
  0.00000000E+00  0.00000000E+00  0.00000000E+00
  0.00000000E+00  0.00000000E+00  0.00000000E+00
  0.00000000E+00  0.00000000E+00  0.00000000E+00
  0.00000000E+00  0.00000000E+00  0.00000000E+00
  0.00000000E+00  0.00000000E+00  0.00000000E+00
  0.00000000E+00  0.00000000E+00  0.00000000E+00
  0.00000000E+00  0.00000000E+00  0.00000000E+00
