Poscar file generated with pyiron       
   1.00000000000000     
     8.4485960000000002   -0.1390320000000000   -0.2198360000000000
     0.1505850000000000    8.9858290000000007    0.2292390000000000
     0.3197180000000000   -0.3196470000000000   12.4693769999999997
   Cs   I    Pb
     4    12     4
Direct
  0.1036660511656251  0.3394598728964269  0.2313115137822521
  0.0470714112661454  0.5003320008747778  0.7311322270134113
  0.6051492805079661  0.0000394727063266  0.7312765867563158
  0.5478226735298151  0.8395227475055336  0.2313975813213176
  0.3890550332850609  0.1135935425220183  0.4410301413256406
  0.7621911406491577  0.7264375476294589  0.5212636868130858
  0.8890547876724071  0.2266913537835435  0.5208758106398008
  0.2618181662422927  0.6134022363565776  0.4414970375075669
  0.7631216060872887  0.7252576637824149  0.9407337133272193
  0.3890851279334981  0.1131134363784838  0.0217360948009215
  0.2628873709291000  0.6129776502357913  0.0211114509831134
  0.8892720430837571  0.2255752199245507  0.9412272971478899
  0.1588010482692326  0.9168801219832474  0.7311497967349752
  0.9940811347606271  0.9224086751299723  0.2311604554430318
  0.6576837879218616  0.4235005944606769  0.2312223043634276
  0.4924844059813154  0.4154600956357655  0.7312263338225478
  0.0758067107295730  0.9202421353653563  0.4812691274172067
  0.5753075269497074  0.4201950750702963  0.4813512090702403
  0.0762828571682519  0.9192607326814937  0.9811159713611346
  0.5759839733973990  0.4192385523932529  0.9811377330091773
 
  0.00000000E+00  0.00000000E+00  0.00000000E+00
  0.00000000E+00  0.00000000E+00  0.00000000E+00
  0.00000000E+00  0.00000000E+00  0.00000000E+00
  0.00000000E+00  0.00000000E+00  0.00000000E+00
  0.00000000E+00  0.00000000E+00  0.00000000E+00
  0.00000000E+00  0.00000000E+00  0.00000000E+00
  0.00000000E+00  0.00000000E+00  0.00000000E+00
  0.00000000E+00  0.00000000E+00  0.00000000E+00
  0.00000000E+00  0.00000000E+00  0.00000000E+00
  0.00000000E+00  0.00000000E+00  0.00000000E+00
  0.00000000E+00  0.00000000E+00  0.00000000E+00
  0.00000000E+00  0.00000000E+00  0.00000000E+00
  0.00000000E+00  0.00000000E+00  0.00000000E+00
  0.00000000E+00  0.00000000E+00  0.00000000E+00
  0.00000000E+00  0.00000000E+00  0.00000000E+00
  0.00000000E+00  0.00000000E+00  0.00000000E+00
  0.00000000E+00  0.00000000E+00  0.00000000E+00
  0.00000000E+00  0.00000000E+00  0.00000000E+00
  0.00000000E+00  0.00000000E+00  0.00000000E+00
  0.00000000E+00  0.00000000E+00  0.00000000E+00
