Poscar file generated with pyiron       
   1.00000000000000     
     8.4464633154321120    0.0101886337999993   -0.1592181686965697
    -0.0097552762952523    8.9903842509278604    0.2398766398572545
     0.2355840073142512   -0.3320688922053990   12.4715287653817128
   Cs   I    Pb
     4    12     4
Direct
  0.0826211412620631  0.3437540194428612  0.2308395171218431
  0.0254304572415232  0.5038292434925855  0.7311241352113313
  0.5836681987270999  0.0033890196851507  0.7310635961385774
  0.5261296425620950  0.8440512381333540  0.2310058887167142
  0.3678609695267140  0.1174884605861027  0.4408698369622007
  0.7416092295126564  0.7295002445130948  0.5215471179573595
  0.8680030910201184  0.2297038352746392  0.5206022084989981
  0.2414373499436064  0.6172219975994329  0.4411360366691355
  0.7416710460036169  0.7304941278089176  0.9410483196785121
  0.3682948428392262  0.1181313858770463  0.0212226789960306
  0.2414553006943048  0.6176868132756769  0.0203082606326967
  0.8680642540232556  0.2301712858202396  0.9414517548805331
  0.1369361033726927  0.9206025271432199  0.7308515127596156
  0.9727400211984201  0.9268657088217988  0.2308636593164585
  0.6363774578736543  0.4283138444816473  0.2310475446677867
  0.4708787323000680  0.4179566490395059  0.7310554726451211
  0.0549121477858217  0.9234026032563947  0.4808181147947327
  0.5547735556873706  0.4235444278817623  0.4811441361371379
  0.0554921957146554  0.9242313362096606  0.9808594570674379
  0.5550213702643316  0.4244342347252305  0.9807376136740710
 
  0.00000000E+00  0.00000000E+00  0.00000000E+00
  0.00000000E+00  0.00000000E+00  0.00000000E+00
  0.00000000E+00  0.00000000E+00  0.00000000E+00
  0.00000000E+00  0.00000000E+00  0.00000000E+00
  0.00000000E+00  0.00000000E+00  0.00000000E+00
  0.00000000E+00  0.00000000E+00  0.00000000E+00
  0.00000000E+00  0.00000000E+00  0.00000000E+00
  0.00000000E+00  0.00000000E+00  0.00000000E+00
  0.00000000E+00  0.00000000E+00  0.00000000E+00
  0.00000000E+00  0.00000000E+00  0.00000000E+00
  0.00000000E+00  0.00000000E+00  0.00000000E+00
  0.00000000E+00  0.00000000E+00  0.00000000E+00
  0.00000000E+00  0.00000000E+00  0.00000000E+00
  0.00000000E+00  0.00000000E+00  0.00000000E+00
  0.00000000E+00  0.00000000E+00  0.00000000E+00
  0.00000000E+00  0.00000000E+00  0.00000000E+00
  0.00000000E+00  0.00000000E+00  0.00000000E+00
  0.00000000E+00  0.00000000E+00  0.00000000E+00
  0.00000000E+00  0.00000000E+00  0.00000000E+00
  0.00000000E+00  0.00000000E+00  0.00000000E+00
