Poscar file generated with pyiron       
   1.00000000000000     
     8.8587497144715197    0.1320647699840960   -0.1765236922017835
     0.2361076926007301    8.8381091532488725    0.3785817604591564
     0.3462915352933456   -0.4037593103401694   12.2832763320562925
   Cs   I    Pb
     4    12     4
Direct
  0.0659616611325365  0.3515079200673937  0.2071477013192063
  0.0647741251287446  0.3525922170055960  0.7264763493098569
  0.5660061421416694  0.8517785668030942  0.7067905388169081
  0.5652369160927349  0.8522385287592658  0.2259280883145629
  0.3357430195355679  0.0817767286962132  0.4657702627217728
  0.7955815285978431  0.6220363790445071  0.4674045825168673
  0.8319648511881721  0.1182658862285085  0.5332338033018225
  0.2991697453371603  0.5858341400351783  0.4001642478700731
  0.8350003894883949  0.5822852960359316  0.9661042653878023
  0.2954705299179454  0.1218902630097557  0.9676203390379404
  0.3314905545931084  0.6181094221730848  0.0333128689070534
  0.7988662175099214  0.0859029990265124  0.9000467514273164
  0.1331154632662427  0.7857551411851965  0.7167640099301604
  0.9977979540915345  0.9183763823051981  0.2165092524613889
  0.6332035341576687  0.2855305039302294  0.2167369826097192
  0.4976727592333801  0.4185403173882170  0.7165079069519107
  0.0655119720484794  0.8520790387540257  0.4665982546799841
  0.5655058696171458  0.3520122431233292  0.4665930111226212
  0.0652501321372396  0.8520771632521041  0.9665786348768420
  0.5651920204626875  0.3521129960555075  0.9666381876019965
 
  0.00000000E+00  0.00000000E+00  0.00000000E+00
  0.00000000E+00  0.00000000E+00  0.00000000E+00
  0.00000000E+00  0.00000000E+00  0.00000000E+00
  0.00000000E+00  0.00000000E+00  0.00000000E+00
  0.00000000E+00  0.00000000E+00  0.00000000E+00
  0.00000000E+00  0.00000000E+00  0.00000000E+00
  0.00000000E+00  0.00000000E+00  0.00000000E+00
  0.00000000E+00  0.00000000E+00  0.00000000E+00
  0.00000000E+00  0.00000000E+00  0.00000000E+00
  0.00000000E+00  0.00000000E+00  0.00000000E+00
  0.00000000E+00  0.00000000E+00  0.00000000E+00
  0.00000000E+00  0.00000000E+00  0.00000000E+00
  0.00000000E+00  0.00000000E+00  0.00000000E+00
  0.00000000E+00  0.00000000E+00  0.00000000E+00
  0.00000000E+00  0.00000000E+00  0.00000000E+00
  0.00000000E+00  0.00000000E+00  0.00000000E+00
  0.00000000E+00  0.00000000E+00  0.00000000E+00
  0.00000000E+00  0.00000000E+00  0.00000000E+00
  0.00000000E+00  0.00000000E+00  0.00000000E+00
  0.00000000E+00  0.00000000E+00  0.00000000E+00
