Poscar file generated with pyiron       
   1.00000000000000     
     8.8753656049930623    0.4721550980413679   -0.1381695771798254
    -0.1414258197217620    8.8165350374086149    0.5195361657572855
     0.1982628878209255   -0.5998645577860890   12.2274933790523779
   Cs   I    Pb
     4    12     4
Direct
  0.1204204829735693  0.3534817699522561  0.2012346976220140
  0.0938716656925197  0.3720315960365455  0.7028928842304594
  0.6162333850195131  0.8463681512123379  0.7475552877261171
  0.5929959178911672  0.8770823035730291  0.2491403686808799
  0.3356501789142649  0.1227682155389342  0.4529960159277299
  0.8302520370299450  0.6276598474682862  0.4983663064160942
  0.8334707859835683  0.1071607781393531  0.5429122695747235
  0.3295691889306642  0.6053800602310495  0.4082830489679590
  0.8858630959994248  0.5926663904567260  0.9521127112815783
  0.3711581942938966  0.1072106566795252  0.9966350488689810
  0.3875423293843725  0.6248857092335229  0.0404346642818243
  0.8731600620052191  0.1126063170862259  0.9065011134307729
  0.1897850139879212  0.8120517200500782  0.7212553534383350
  0.0201653000304626  0.9130114577992504  0.2203704699868775
  0.6930045606680191  0.3138415216508173  0.2290898475865734
  0.5204370291733880  0.4101307980919912  0.7281938997439084
  0.0932379112357578  0.8677256163841960  0.4726986954446413
  0.5942616759813829  0.3674082058281998  0.4766027654209898
  0.1176243763154958  0.8574570927928784  0.9729058846614045
  0.6185361437414143  0.3572449794798373  0.9768151627231874
 
  0.00000000E+00  0.00000000E+00  0.00000000E+00
  0.00000000E+00  0.00000000E+00  0.00000000E+00
  0.00000000E+00  0.00000000E+00  0.00000000E+00
  0.00000000E+00  0.00000000E+00  0.00000000E+00
  0.00000000E+00  0.00000000E+00  0.00000000E+00
  0.00000000E+00  0.00000000E+00  0.00000000E+00
  0.00000000E+00  0.00000000E+00  0.00000000E+00
  0.00000000E+00  0.00000000E+00  0.00000000E+00
  0.00000000E+00  0.00000000E+00  0.00000000E+00
  0.00000000E+00  0.00000000E+00  0.00000000E+00
  0.00000000E+00  0.00000000E+00  0.00000000E+00
  0.00000000E+00  0.00000000E+00  0.00000000E+00
  0.00000000E+00  0.00000000E+00  0.00000000E+00
  0.00000000E+00  0.00000000E+00  0.00000000E+00
  0.00000000E+00  0.00000000E+00  0.00000000E+00
  0.00000000E+00  0.00000000E+00  0.00000000E+00
  0.00000000E+00  0.00000000E+00  0.00000000E+00
  0.00000000E+00  0.00000000E+00  0.00000000E+00
  0.00000000E+00  0.00000000E+00  0.00000000E+00
  0.00000000E+00  0.00000000E+00  0.00000000E+00
