Poscar file generated with pyiron       
   1.00000000000000     
     8.4755470000000006   -0.1733770000000000   -0.2334900000000000
     0.1945980000000000    8.9678609999999992    0.3935150000000000
     0.3350560000000000   -0.5481360000000000   12.4470960000000002
   Cs   I    Pb
     4    12     4
Direct
  0.1075895817674777  0.3068941947806820  0.2212768544455841
  0.0529510237007500  0.4638664128700327  0.7212662326653216
  0.6072808175714712  0.9649887446198804  0.7205640846209747
  0.5524196323079948  0.8084444977977796  0.2206150720761073
  0.3922929604698311  0.0807091482532130  0.4305452658143736
  0.7693712555944003  0.6908318578742936  0.5113577008402856
  0.8921999624194825  0.1907732283151802  0.5111509456316909
  0.2694738836204564  0.5806485477822960  0.4301902310229266
  0.7678860608846989  0.6913332087587989  0.9300904110823893
  0.3904287450856003  0.0812182773885510  0.0111081554395795
  0.2680358782616068  0.5806693869441091  0.0115425506654816
  0.8904936877007188  0.1904683892231134  0.9305662358654558
  0.1636256811699894  0.8806060683602652  0.7208741070867859
  0.9972342786684507  0.8898493740286995  0.2209692096562108
  0.6639116015854896  0.3909897297182070  0.2205100864297194
  0.4971486044903841  0.3823921864023774  0.7205131202006640
  0.0808565496550031  0.8852811169363832  0.4709293636384899
  0.5811473180221469  0.3857931430327710  0.4703947833393798
  0.0794309479159310  0.8857463618638661  0.9708470239412463
  0.5793829462810720  0.3862299679763623  0.9705669536289392
 
  0.00000000E+00  0.00000000E+00  0.00000000E+00
  0.00000000E+00  0.00000000E+00  0.00000000E+00
  0.00000000E+00  0.00000000E+00  0.00000000E+00
  0.00000000E+00  0.00000000E+00  0.00000000E+00
  0.00000000E+00  0.00000000E+00  0.00000000E+00
  0.00000000E+00  0.00000000E+00  0.00000000E+00
  0.00000000E+00  0.00000000E+00  0.00000000E+00
  0.00000000E+00  0.00000000E+00  0.00000000E+00
  0.00000000E+00  0.00000000E+00  0.00000000E+00
  0.00000000E+00  0.00000000E+00  0.00000000E+00
  0.00000000E+00  0.00000000E+00  0.00000000E+00
  0.00000000E+00  0.00000000E+00  0.00000000E+00
  0.00000000E+00  0.00000000E+00  0.00000000E+00
  0.00000000E+00  0.00000000E+00  0.00000000E+00
  0.00000000E+00  0.00000000E+00  0.00000000E+00
  0.00000000E+00  0.00000000E+00  0.00000000E+00
  0.00000000E+00  0.00000000E+00  0.00000000E+00
  0.00000000E+00  0.00000000E+00  0.00000000E+00
  0.00000000E+00  0.00000000E+00  0.00000000E+00
  0.00000000E+00  0.00000000E+00  0.00000000E+00
