Poscar file generated with pyiron       
   1.00000000000000     
     8.9008730035854029    0.1749813251043699    0.0428550829122353
     0.1166664351163218    8.7852238850324351    0.5423751271057388
     0.0064794247503002   -0.9155256129105522   12.2637827741370362
   Cs   I    Pb
     4    12     4
Direct
  0.0814654990309874  0.3937064294211955  0.2311519696599197
  0.0617772686678559  0.3652607095342551  0.7266169934616145
  0.5851854302275907  0.8440229678096378  0.7178123348725840
  0.5610400407784462  0.9068992866836643  0.2107462561733670
  0.2991632722332996  0.1543896424787657  0.4507727400855131
  0.8533197650759707  0.5993416928581201  0.4960359568405881
  0.8052899087446654  0.1077517668265212  0.5366619700622637
  0.3552227256294102  0.6556109671423564  0.4114874418143574
  0.8262437089854864  0.6186861018747413  0.9493871090071031
  0.3023421344676704  0.1439963034807981  0.9982484775551637
  0.3256298222912651  0.6358343232079403  0.0376673864448993
  0.8055669218959346  0.1127757264440350  0.9071183235036073
  0.1566528297905676  0.8306645035225456  0.7239239713552168
  0.9891920607257617  0.9203924775368861  0.2249674866920898
  0.6572200202436581  0.3338350896097863  0.2214560931712725
  0.4878973476306693  0.4166515598366320  0.7226156600716894
  0.0756817884786590  0.8773058721442848  0.4738937874885220
  0.5751416547022817  0.3766690992849659  0.4719834744565405
  0.0698017177797998  0.8780294923677064  0.9736414802512570
  0.5696769958621918  0.3769288113173210  0.9721473365238058
 
  0.00000000E+00  0.00000000E+00  0.00000000E+00
  0.00000000E+00  0.00000000E+00  0.00000000E+00
  0.00000000E+00  0.00000000E+00  0.00000000E+00
  0.00000000E+00  0.00000000E+00  0.00000000E+00
  0.00000000E+00  0.00000000E+00  0.00000000E+00
  0.00000000E+00  0.00000000E+00  0.00000000E+00
  0.00000000E+00  0.00000000E+00  0.00000000E+00
  0.00000000E+00  0.00000000E+00  0.00000000E+00
  0.00000000E+00  0.00000000E+00  0.00000000E+00
  0.00000000E+00  0.00000000E+00  0.00000000E+00
  0.00000000E+00  0.00000000E+00  0.00000000E+00
  0.00000000E+00  0.00000000E+00  0.00000000E+00
  0.00000000E+00  0.00000000E+00  0.00000000E+00
  0.00000000E+00  0.00000000E+00  0.00000000E+00
  0.00000000E+00  0.00000000E+00  0.00000000E+00
  0.00000000E+00  0.00000000E+00  0.00000000E+00
  0.00000000E+00  0.00000000E+00  0.00000000E+00
  0.00000000E+00  0.00000000E+00  0.00000000E+00
  0.00000000E+00  0.00000000E+00  0.00000000E+00
  0.00000000E+00  0.00000000E+00  0.00000000E+00
