Poscar file generated with pyiron       
   1.00000000000000     
     8.8663977074987912    0.4502703518461325   -0.3551054657992470
    -0.0533998675012568    8.8333925644232707    0.4106506866693802
     0.4682937678694126   -0.4765637719228713   12.2409585575344977
   Cs   I    Pb
     4    12     4
Direct
  0.0822507272457959  0.3864608535173502  0.2145546398909007
  0.0664011497060980  0.3852340194205044  0.7213983655262068
  0.5775013023661122  0.8772181575275876  0.7279849265637219
  0.5698116286881219  0.9014418138574343  0.2366530702592279
  0.3167910874824281  0.1417450305215456  0.4650137994015041
  0.8190565533032810  0.6392573754720154  0.4857903327332876
  0.8156396312705494  0.1330595027490266  0.5425053369513670
  0.3180174433760387  0.6376309826484960  0.4047647130155911
  0.8439313843716163  0.6199000718457713  0.9629557716049333
  0.3161105028873067  0.1479795585496158  0.9825366140769181
  0.3439152608612208  0.6512971417655143  0.0434779236050502
  0.8189860245389431  0.1283495631342706  0.9070750247614674
  0.1491774154460765  0.8242367551532631  0.7237923979759582
  0.9981032520979414  0.9492660333384879  0.2227252574415245
  0.6515876673151313  0.3302220455462536  0.2261055948701773
  0.4953881175391778  0.4472970398360472  0.7249897172060096
  0.0705355259383624  0.8882985189732543  0.4738529217667373
  0.5701527665894722  0.3894649989159231  0.4753032687070842
  0.0777134793338248  0.8849121132651796  0.9738792627510500
  0.5771597250966269  0.3862986399577220  0.9749200021455003
 
  0.00000000E+00  0.00000000E+00  0.00000000E+00
  0.00000000E+00  0.00000000E+00  0.00000000E+00
  0.00000000E+00  0.00000000E+00  0.00000000E+00
  0.00000000E+00  0.00000000E+00  0.00000000E+00
  0.00000000E+00  0.00000000E+00  0.00000000E+00
  0.00000000E+00  0.00000000E+00  0.00000000E+00
  0.00000000E+00  0.00000000E+00  0.00000000E+00
  0.00000000E+00  0.00000000E+00  0.00000000E+00
  0.00000000E+00  0.00000000E+00  0.00000000E+00
  0.00000000E+00  0.00000000E+00  0.00000000E+00
  0.00000000E+00  0.00000000E+00  0.00000000E+00
  0.00000000E+00  0.00000000E+00  0.00000000E+00
  0.00000000E+00  0.00000000E+00  0.00000000E+00
  0.00000000E+00  0.00000000E+00  0.00000000E+00
  0.00000000E+00  0.00000000E+00  0.00000000E+00
  0.00000000E+00  0.00000000E+00  0.00000000E+00
  0.00000000E+00  0.00000000E+00  0.00000000E+00
  0.00000000E+00  0.00000000E+00  0.00000000E+00
  0.00000000E+00  0.00000000E+00  0.00000000E+00
  0.00000000E+00  0.00000000E+00  0.00000000E+00
