Poscar file generated with pyiron       
   1.00000000000000     
     8.8959813805640096    0.1961562955862527   -0.2812171607320185
     0.1815622134984043    8.8079584936342119    0.5230885229549026
     0.3056490273146316   -0.5241631361108868   12.2620507937229224
   Cs   I    Pb
     4    12     4
Direct
  0.0682163313001802  0.3378141199089770  0.2033455972643827
  0.0552171112551494  0.3621914501945662  0.7169375481235996
  0.5687748664021373  0.8499662476034074  0.7099982843828443
  0.5533160541559712  0.8523943604698297  0.2207881674781386
  0.3260422906589434  0.0843310510516454  0.4494554515314191
  0.7917527098483461  0.6190044767261145  0.4773708935607631
  0.8241285157090029  0.1134330652173610  0.5300003146806486
  0.2928934995516471  0.5861453938957021  0.3957730267749474
  0.8201193525569311  0.5930553512754629  0.9479961023035859
  0.3080933666133636  0.1048774754917344  0.9764311619498444
  0.3200303081943063  0.6045717041855995  0.0305393007460653
  0.8087890335126570  0.0976565111930760  0.8954652692023751
  0.1406589928348265  0.7958123187618333  0.7135175738051962
  0.9818750203874901  0.9046301555658348  0.2113692124760302
  0.6397146283406064  0.2933722653605539  0.2143677361980843
  0.4833304592429654  0.4083082325463139  0.7122594891133939
  0.0596723371586980  0.8509039189847190  0.4626780081279622
  0.5597184998320233  0.3512221617242912  0.4630928037260910
  0.0629814152974806  0.8495125596341592  0.9626570473933853
  0.5630054327262251  0.3498751455772241  0.9630430892027249
 
  0.00000000E+00  0.00000000E+00  0.00000000E+00
  0.00000000E+00  0.00000000E+00  0.00000000E+00
  0.00000000E+00  0.00000000E+00  0.00000000E+00
  0.00000000E+00  0.00000000E+00  0.00000000E+00
  0.00000000E+00  0.00000000E+00  0.00000000E+00
  0.00000000E+00  0.00000000E+00  0.00000000E+00
  0.00000000E+00  0.00000000E+00  0.00000000E+00
  0.00000000E+00  0.00000000E+00  0.00000000E+00
  0.00000000E+00  0.00000000E+00  0.00000000E+00
  0.00000000E+00  0.00000000E+00  0.00000000E+00
  0.00000000E+00  0.00000000E+00  0.00000000E+00
  0.00000000E+00  0.00000000E+00  0.00000000E+00
  0.00000000E+00  0.00000000E+00  0.00000000E+00
  0.00000000E+00  0.00000000E+00  0.00000000E+00
  0.00000000E+00  0.00000000E+00  0.00000000E+00
  0.00000000E+00  0.00000000E+00  0.00000000E+00
  0.00000000E+00  0.00000000E+00  0.00000000E+00
  0.00000000E+00  0.00000000E+00  0.00000000E+00
  0.00000000E+00  0.00000000E+00  0.00000000E+00
  0.00000000E+00  0.00000000E+00  0.00000000E+00
