Poscar file generated with pyiron       
   1.00000000000000     
     8.4330241932730807   -0.0122354626892495   -0.2241439209471217
     0.0221733918533413    8.9798213167133216    0.2889463079961749
     0.3287274740527180   -0.4011194502609604   12.4708126166579287
   Cs   I    Pb
     4    12     4
Direct
  0.0970509858894841  0.3450958023261615  0.2308911562318226
  0.0396097564049805  0.5055931668030016  0.7307799679167976
  0.5972669728210579  0.0042585252994147  0.7320226218565475
  0.5401064934027882  0.8438314884326901  0.2319643766655289
  0.3817842158785636  0.1177309461929654  0.4420690952490692
  0.7533313787182373  0.7319271978142634  0.5208003941119178
  0.8815070609145904  0.2317813261480470  0.5208822641191631
  0.2533321056468821  0.6179275072170879  0.4420026415714036
  0.7560842779313790  0.7313840634651270  0.9423576899457744
  0.3840593467921466  0.1177155122715983  0.0210846531348822
  0.2559576202967929  0.6183191159773935  0.0208262897297235
  0.8839593204460284  0.2320657830492175  0.9417876734867946
  0.1493300223400143  0.9219670770103868  0.7311569904853799
  0.9872416056941877  0.9285222411274422  0.2311266898461113
  0.6490403585132658  0.4272522541092010  0.2317764776759400
  0.4872418523652295  0.4209291732676587  0.7317340160696092
  0.0675680386516266  0.9253080499849481  0.4810229765959597
  0.5673622286429604  0.4248815725691017  0.4817550271486271
  0.0699219367592855  0.9252581479823918  0.9811793730177257
  0.5696341976545429  0.4248418801292026  0.9816124276399785
 
  0.00000000E+00  0.00000000E+00  0.00000000E+00
  0.00000000E+00  0.00000000E+00  0.00000000E+00
  0.00000000E+00  0.00000000E+00  0.00000000E+00
  0.00000000E+00  0.00000000E+00  0.00000000E+00
  0.00000000E+00  0.00000000E+00  0.00000000E+00
  0.00000000E+00  0.00000000E+00  0.00000000E+00
  0.00000000E+00  0.00000000E+00  0.00000000E+00
  0.00000000E+00  0.00000000E+00  0.00000000E+00
  0.00000000E+00  0.00000000E+00  0.00000000E+00
  0.00000000E+00  0.00000000E+00  0.00000000E+00
  0.00000000E+00  0.00000000E+00  0.00000000E+00
  0.00000000E+00  0.00000000E+00  0.00000000E+00
  0.00000000E+00  0.00000000E+00  0.00000000E+00
  0.00000000E+00  0.00000000E+00  0.00000000E+00
  0.00000000E+00  0.00000000E+00  0.00000000E+00
  0.00000000E+00  0.00000000E+00  0.00000000E+00
  0.00000000E+00  0.00000000E+00  0.00000000E+00
  0.00000000E+00  0.00000000E+00  0.00000000E+00
  0.00000000E+00  0.00000000E+00  0.00000000E+00
  0.00000000E+00  0.00000000E+00  0.00000000E+00
