Poscar file generated with pyiron       
   1.00000000000000     
     8.4215800000000005   -0.0794520000000000   -0.1666150000000000
     0.0895690000000000    8.9945819999999994    0.2149490000000000
     0.2508530000000000   -0.3006150000000000   12.4859089999999995
   Cs   I    Pb
     4    12     4
Direct
  0.1084934555640089  0.2463451621347232  0.2152541018214222
  0.0478441442225304  0.4091797397686747  0.7151734086221779
  0.6071189470381100  0.9091995999175069  0.7148787478623859
  0.5489820447114298  0.7462225051510885  0.2151209946800705
  0.3942387204756770  0.0195828550036268  0.4263429216599306
  0.7628240801828596  0.6354933528124320  0.5043064083633197
  0.8940246486881520  0.1356584260250884  0.5040625681077557
  0.2629185419773208  0.5199080317732268  0.4260862318992693
  0.7628879793213343  0.6355037183990717  0.9254716419886435
  0.3931115512972525  0.0204516894000761  0.0048092080484352
  0.2630754328358975  0.5204481961535237  0.0047967682590908
  0.8930843978004717  0.1350748416646468  0.9254770417761264
  0.1588943756367627  0.8248074751653434  0.7151558721331384
  0.9972605960955860  0.8306616398957729  0.2151969204187552
  0.6597615601611508  0.3299060344468501  0.2151157944279518
  0.4968671104944065  0.3254570933684846  0.7151560255941405
  0.0783808554578798  0.8275930295767679  0.4651344764708369
  0.5784886753338370  0.3276176039065959  0.4651594350069814
  0.0781361006708394  0.8279090843285957  0.9651733926553234
  0.5781767205468995  0.3279491486597763  0.9651454911916844
 
  0.00000000E+00  0.00000000E+00  0.00000000E+00
  0.00000000E+00  0.00000000E+00  0.00000000E+00
  0.00000000E+00  0.00000000E+00  0.00000000E+00
  0.00000000E+00  0.00000000E+00  0.00000000E+00
  0.00000000E+00  0.00000000E+00  0.00000000E+00
  0.00000000E+00  0.00000000E+00  0.00000000E+00
  0.00000000E+00  0.00000000E+00  0.00000000E+00
  0.00000000E+00  0.00000000E+00  0.00000000E+00
  0.00000000E+00  0.00000000E+00  0.00000000E+00
  0.00000000E+00  0.00000000E+00  0.00000000E+00
  0.00000000E+00  0.00000000E+00  0.00000000E+00
  0.00000000E+00  0.00000000E+00  0.00000000E+00
  0.00000000E+00  0.00000000E+00  0.00000000E+00
  0.00000000E+00  0.00000000E+00  0.00000000E+00
  0.00000000E+00  0.00000000E+00  0.00000000E+00
  0.00000000E+00  0.00000000E+00  0.00000000E+00
  0.00000000E+00  0.00000000E+00  0.00000000E+00
  0.00000000E+00  0.00000000E+00  0.00000000E+00
  0.00000000E+00  0.00000000E+00  0.00000000E+00
  0.00000000E+00  0.00000000E+00  0.00000000E+00
