Poscar file generated with pyiron       
   1.00000000000000     
     8.4546126962258583   -0.1534792919866518   -0.2203610441142713
     0.1687813981374802    8.9731823296644784    0.4348752092818832
     0.3172220633399491   -0.6108055938513735   12.4533927288809103
   Cs   I    Pb
     4    12     4
Direct
  0.1051195741431596  0.3034154211152424  0.2214065886944551
  0.0492507666536337  0.4628952187899825  0.7212221383154750
  0.6055476521385654  0.9636204878065351  0.7207216057806138
  0.5485738145171569  0.8042109566826138  0.2208104754267854
  0.3902629804094422  0.0777262400226348  0.4304944171106437
  0.7647360519288198  0.6896608819941721  0.5113305892671618
  0.8906062238271513  0.1893961974425757  0.5106995042550253
  0.2647651867963786  0.5770504420383027  0.4311537210645992
  0.7641129603702365  0.6894375145480564  0.9301069983145945
  0.3892719720943976  0.0778793840765959  0.0111693359429766
  0.2640108994793899  0.5771772704901174  0.0110085674496033
  0.8894449253504688  0.1890299420813055  0.9312032271727663
  0.1602363593620993  0.8797464689010227  0.7209690977278889
  0.9945340414531957  0.8861528491529469  0.2210014361741195
  0.6602118435548850  0.3887410478903971  0.2207540975431588
  0.4950273581315924  0.3796089906294473  0.7207668130734355
  0.0777065485004987  0.8831184917796717  0.4709453014572358
  0.5779357926154833  0.3835158086389651  0.4705492943544851
  0.0768739964155743  0.8832577298556490  0.9709093018370742
  0.5768508330585337  0.3836343874751338  0.9706445168992003
 
  0.00000000E+00  0.00000000E+00  0.00000000E+00
  0.00000000E+00  0.00000000E+00  0.00000000E+00
  0.00000000E+00  0.00000000E+00  0.00000000E+00
  0.00000000E+00  0.00000000E+00  0.00000000E+00
  0.00000000E+00  0.00000000E+00  0.00000000E+00
  0.00000000E+00  0.00000000E+00  0.00000000E+00
  0.00000000E+00  0.00000000E+00  0.00000000E+00
  0.00000000E+00  0.00000000E+00  0.00000000E+00
  0.00000000E+00  0.00000000E+00  0.00000000E+00
  0.00000000E+00  0.00000000E+00  0.00000000E+00
  0.00000000E+00  0.00000000E+00  0.00000000E+00
  0.00000000E+00  0.00000000E+00  0.00000000E+00
  0.00000000E+00  0.00000000E+00  0.00000000E+00
  0.00000000E+00  0.00000000E+00  0.00000000E+00
  0.00000000E+00  0.00000000E+00  0.00000000E+00
  0.00000000E+00  0.00000000E+00  0.00000000E+00
  0.00000000E+00  0.00000000E+00  0.00000000E+00
  0.00000000E+00  0.00000000E+00  0.00000000E+00
  0.00000000E+00  0.00000000E+00  0.00000000E+00
  0.00000000E+00  0.00000000E+00  0.00000000E+00
