Poscar file generated with pyiron       
   1.00000000000000     
     8.3935869208860012    0.0435256389624916   -0.3053660204438918
    -0.0341549910217338    9.0035991391794532    0.2809192820266669
     0.4580887093934131   -0.3833049188107828   12.4783941489461760
   Cs   I    Pb
     4    12     4
Direct
  0.0982612413501982  0.3498822702461177  0.2254891631680599
  0.0365357807076654  0.5145246708858581  0.7254535682101877
  0.5958066015129556  0.0141656446625422  0.7264649449458135
  0.5349715890906785  0.8493789979698956  0.2264623471941004
  0.3816657697565448  0.1239628148407021  0.4368660607118635
  0.7487108237588922  0.7402408788661644  0.5151236294419009
  0.8820271083715255  0.2399270980545671  0.5154191699377461
  0.2494306590818097  0.6239231715500235  0.4366183141988090
  0.7516162527286154  0.7401496975076709  0.9371973145566731
  0.3836474126153028  0.1244156751439501  0.0157906892427850
  0.2519529719457961  0.6248707748037827  0.0154186430530796
  0.8839176236305136  0.2404684721562439  0.9363996922610028
  0.1462469220083609  0.9293952305052672  0.7256253262796976
  0.9841142438483718  0.9357310233503933  0.2256482325829527
  0.6487991849525639  0.4348467616942780  0.2262956514033456
  0.4863685938866175  0.4293525018404590  0.7263276325670784
  0.0648898736954898  0.9317965058131830  0.4754272651302672
  0.5657865985992993  0.4315161646467463  0.4760502281144871
  0.0675306193396467  0.9323153453975119  0.9758631836001115
  0.5680617946121831  0.4321759733414959  0.9763495052722184
 
  0.00000000E+00  0.00000000E+00  0.00000000E+00
  0.00000000E+00  0.00000000E+00  0.00000000E+00
  0.00000000E+00  0.00000000E+00  0.00000000E+00
  0.00000000E+00  0.00000000E+00  0.00000000E+00
  0.00000000E+00  0.00000000E+00  0.00000000E+00
  0.00000000E+00  0.00000000E+00  0.00000000E+00
  0.00000000E+00  0.00000000E+00  0.00000000E+00
  0.00000000E+00  0.00000000E+00  0.00000000E+00
  0.00000000E+00  0.00000000E+00  0.00000000E+00
  0.00000000E+00  0.00000000E+00  0.00000000E+00
  0.00000000E+00  0.00000000E+00  0.00000000E+00
  0.00000000E+00  0.00000000E+00  0.00000000E+00
  0.00000000E+00  0.00000000E+00  0.00000000E+00
  0.00000000E+00  0.00000000E+00  0.00000000E+00
  0.00000000E+00  0.00000000E+00  0.00000000E+00
  0.00000000E+00  0.00000000E+00  0.00000000E+00
  0.00000000E+00  0.00000000E+00  0.00000000E+00
  0.00000000E+00  0.00000000E+00  0.00000000E+00
  0.00000000E+00  0.00000000E+00  0.00000000E+00
  0.00000000E+00  0.00000000E+00  0.00000000E+00
