Poscar file generated with pyiron       
   1.00000000000000     
     8.4445962782802901   -0.1311028962952573   -0.2105430506164018
     0.1604619381903899    8.9868398485901704    0.1660403881297595
     0.3066162383940623   -0.2349203256819796   12.4739775779334359
   Cs   I    Pb
     4    12     4
Direct
  0.0976031326583165  0.2493781309673875  0.2127533209724012
  0.0395936545852711  0.4095706283242299  0.7125904664604591
  0.5960400071880747  0.9109113861850117  0.7125032976489780
  0.5412939005850804  0.7504962914179372  0.2126977732834330
  0.3823789675164381  0.0242874089977547  0.4238923081817744
  0.7556526850477362  0.6370422908605566  0.5017838126839511
  0.8812484648127467  0.1358338416877952  0.5034799844018059
  0.2554149785146764  0.5241461358359643  0.4214209206671822
  0.7546447738025335  0.6364485129159928  0.9236469019319883
  0.3825772560719337  0.0225424104748791  0.0010169933798983
  0.2548219392717802  0.5224449238194682  0.0031184398371667
  0.8822065137336416  0.1357834932144147  0.9223343519140591
  0.1504674450330020  0.8241570915824540  0.7126767967156953
  0.9875486917419236  0.8348876707715359  0.2126502462331160
  0.6505948381740415  0.3317704968268088  0.2126483512442001
  0.4870090974173532  0.3291307378574072  0.7126817376293155
  0.0692746269042876  0.8305296095867466  0.4627699300307074
  0.5688037856342703  0.3310904496345599  0.4627300227416341
  0.0686319521531805  0.8290752927159760  0.9626674037349479
  0.5688232045265696  0.3294730852853032  0.9627647822880114
 
  0.00000000E+00  0.00000000E+00  0.00000000E+00
  0.00000000E+00  0.00000000E+00  0.00000000E+00
  0.00000000E+00  0.00000000E+00  0.00000000E+00
  0.00000000E+00  0.00000000E+00  0.00000000E+00
  0.00000000E+00  0.00000000E+00  0.00000000E+00
  0.00000000E+00  0.00000000E+00  0.00000000E+00
  0.00000000E+00  0.00000000E+00  0.00000000E+00
  0.00000000E+00  0.00000000E+00  0.00000000E+00
  0.00000000E+00  0.00000000E+00  0.00000000E+00
  0.00000000E+00  0.00000000E+00  0.00000000E+00
  0.00000000E+00  0.00000000E+00  0.00000000E+00
  0.00000000E+00  0.00000000E+00  0.00000000E+00
  0.00000000E+00  0.00000000E+00  0.00000000E+00
  0.00000000E+00  0.00000000E+00  0.00000000E+00
  0.00000000E+00  0.00000000E+00  0.00000000E+00
  0.00000000E+00  0.00000000E+00  0.00000000E+00
  0.00000000E+00  0.00000000E+00  0.00000000E+00
  0.00000000E+00  0.00000000E+00  0.00000000E+00
  0.00000000E+00  0.00000000E+00  0.00000000E+00
  0.00000000E+00  0.00000000E+00  0.00000000E+00
