Poscar file generated with pyiron       
   1.00000000000000     
     8.4622254469655935   -0.0989216990892705   -0.1926895905286804
     0.1170838847238692    8.9651877629167576    0.4875291932109128
     0.2754281007197865   -0.6768740873016417   12.4412444233896071
   Cs   I    Pb
     4    12     4
Direct
  0.1099549945614573  0.3051354291981968  0.2204206189014940
  0.0540268835805672  0.4631434688556509  0.7202821356822936
  0.6095798225075827  0.9666978801630904  0.7194307151305098
  0.5538000376912875  0.8083596209861807  0.2196156192814359
  0.3941318203345951  0.0809245126943048  0.4299490470765455
  0.7699432231926410  0.6917643364222047  0.5104809481454532
  0.8947889678038752  0.1905443093330145  0.5095995649076307
  0.2703538117033880  0.5794525163674942  0.4294735742813938
  0.7691220047301979  0.6920861982676931  0.9286533369806095
  0.3929336501058360  0.0814566034741141  0.0093738164454017
  0.2688621764041081  0.5798669090662069  0.0109422295844257
  0.8926946709570897  0.1904439945885117  0.9299621168556872
  0.1659061662859106  0.8792486045132143  0.7198724120427347
  0.9996496530013574  0.8883405719749577  0.2198869409610149
  0.6658939918933534  0.3921535238294862  0.2193769210645557
  0.4999357052211031  0.3836789164771940  0.7193993124793610
  0.0825886001526147  0.8845609416463762  0.4699746634451572
  0.5832010000690968  0.3859719257321999  0.4692301223242255
  0.0815503047983725  0.8854330576295120  0.9696564368713454
  0.5813283823754432  0.3868439400217724  0.9695129785393206
 
  0.00000000E+00  0.00000000E+00  0.00000000E+00
  0.00000000E+00  0.00000000E+00  0.00000000E+00
  0.00000000E+00  0.00000000E+00  0.00000000E+00
  0.00000000E+00  0.00000000E+00  0.00000000E+00
  0.00000000E+00  0.00000000E+00  0.00000000E+00
  0.00000000E+00  0.00000000E+00  0.00000000E+00
  0.00000000E+00  0.00000000E+00  0.00000000E+00
  0.00000000E+00  0.00000000E+00  0.00000000E+00
  0.00000000E+00  0.00000000E+00  0.00000000E+00
  0.00000000E+00  0.00000000E+00  0.00000000E+00
  0.00000000E+00  0.00000000E+00  0.00000000E+00
  0.00000000E+00  0.00000000E+00  0.00000000E+00
  0.00000000E+00  0.00000000E+00  0.00000000E+00
  0.00000000E+00  0.00000000E+00  0.00000000E+00
  0.00000000E+00  0.00000000E+00  0.00000000E+00
  0.00000000E+00  0.00000000E+00  0.00000000E+00
  0.00000000E+00  0.00000000E+00  0.00000000E+00
  0.00000000E+00  0.00000000E+00  0.00000000E+00
  0.00000000E+00  0.00000000E+00  0.00000000E+00
  0.00000000E+00  0.00000000E+00  0.00000000E+00
