Poscar file generated with pyiron       
   1.00000000000000     
     8.4455559999999998    0.0643920000000000   -0.1759980000000000
    -0.0635260000000000    8.9909990000000004    0.1938500000000000
     0.2562490000000000   -0.2650120000000000   12.4759340000000005
   Cs   I    Pb
     4    12     4
Direct
  0.0923863515972911  0.3580389798928110  0.2407512453410376
  0.0356933318595409  0.5179761230562079  0.7411209562405077
  0.5925202641485185  0.0195240650376221  0.7415439763992921
  0.5358087555551876  0.8600055376167077  0.2415382527318428
  0.3763662681914113  0.1330286508053788  0.4514944668389944
  0.7497216214288187  0.7454991618606925  0.5317276922073262
  0.8763349837873733  0.2444918639227538  0.5305680862083264
  0.2495692457571081  0.6319119986617991  0.4507492328173299
  0.7517605024706953  0.7448655718427588  0.9511903946213707
  0.3780135472502266  0.1327599807481832  0.0303989845528463
  0.2511130748755761  0.6322890986714071  0.0311139805363965
  0.8776895348619647  0.2447619339738480  0.9515568886065324
  0.1464691615173663  0.9345058012183785  0.7410220610158333
  0.9823227650906574  0.9420118070855352  0.2409692996073645
  0.6458777560867830  0.4431711693601770  0.2411915162415070
  0.4828455236063789  0.4357099032612552  0.7411441328993007
  0.0634797351545160  0.9383991493251642  0.4910996265138721
  0.5634491548014111  0.4392562913066556  0.4910595545352834
  0.0648916901682668  0.9386768731324580  0.9909476893538738
  0.5645984898197653  0.4393107551281901  0.9911843173666455
 
  0.00000000E+00  0.00000000E+00  0.00000000E+00
  0.00000000E+00  0.00000000E+00  0.00000000E+00
  0.00000000E+00  0.00000000E+00  0.00000000E+00
  0.00000000E+00  0.00000000E+00  0.00000000E+00
  0.00000000E+00  0.00000000E+00  0.00000000E+00
  0.00000000E+00  0.00000000E+00  0.00000000E+00
  0.00000000E+00  0.00000000E+00  0.00000000E+00
  0.00000000E+00  0.00000000E+00  0.00000000E+00
  0.00000000E+00  0.00000000E+00  0.00000000E+00
  0.00000000E+00  0.00000000E+00  0.00000000E+00
  0.00000000E+00  0.00000000E+00  0.00000000E+00
  0.00000000E+00  0.00000000E+00  0.00000000E+00
  0.00000000E+00  0.00000000E+00  0.00000000E+00
  0.00000000E+00  0.00000000E+00  0.00000000E+00
  0.00000000E+00  0.00000000E+00  0.00000000E+00
  0.00000000E+00  0.00000000E+00  0.00000000E+00
  0.00000000E+00  0.00000000E+00  0.00000000E+00
  0.00000000E+00  0.00000000E+00  0.00000000E+00
  0.00000000E+00  0.00000000E+00  0.00000000E+00
  0.00000000E+00  0.00000000E+00  0.00000000E+00
