Poscar file generated with pyiron       
   1.00000000000000     
     8.4628008012394140    0.1791175225875394   -0.2434941421014719
    -0.1806997167806597    8.9651933190550714    0.5332231480363849
     0.3821880362512894   -0.7277306183785017   12.4418758827617335
   Cs   I    Pb
     4    12     4
Direct
  0.1040959756579485  0.4560653193027046  0.2215098987884165
  0.0480683381420659  0.2978190583924419  0.7211021215622487
  0.6035338275141753  0.7976252116400233  0.7204491413727375
  0.5476178275790458  0.9559806876629671  0.2214463888247865
  0.2631167971583873  0.1829602478299200  0.4311275075112394
  0.8874515533998087  0.5716773836676096  0.5120667055210683
  0.7634355724257903  0.0710742040431772  0.5099172266009457
  0.3882260479578371  0.6825838919887586  0.4321621755171866
  0.8869596232019826  0.5718977463294628  0.9302860402152330
  0.2627976535046788  0.1827606849961229  0.0115253711500883
  0.3873448587216804  0.6823880978255503  0.0114769441964759
  0.7633135833710363  0.0712217975719009  0.9302525735860326
  0.1585765537173031  0.8816893554486567  0.7211152656916827
  0.9928466580197738  0.8718118720333907  0.2212593089668570
  0.6581629424739636  0.3734659470929090  0.2206441162829128
  0.4930430327570485  0.3801029937002326  0.7207870214084779
  0.0758866195237173  0.8768406494702891  0.4711324511894163
  0.5758904464955088  0.3766926461665979  0.4710318921040716
  0.0757323553011646  0.8769906453205418  0.9711224709568288
  0.5757043265996242  0.3766250524046965  0.9708722666707014
 
  0.00000000E+00  0.00000000E+00  0.00000000E+00
  0.00000000E+00  0.00000000E+00  0.00000000E+00
  0.00000000E+00  0.00000000E+00  0.00000000E+00
  0.00000000E+00  0.00000000E+00  0.00000000E+00
  0.00000000E+00  0.00000000E+00  0.00000000E+00
  0.00000000E+00  0.00000000E+00  0.00000000E+00
  0.00000000E+00  0.00000000E+00  0.00000000E+00
  0.00000000E+00  0.00000000E+00  0.00000000E+00
  0.00000000E+00  0.00000000E+00  0.00000000E+00
  0.00000000E+00  0.00000000E+00  0.00000000E+00
  0.00000000E+00  0.00000000E+00  0.00000000E+00
  0.00000000E+00  0.00000000E+00  0.00000000E+00
  0.00000000E+00  0.00000000E+00  0.00000000E+00
  0.00000000E+00  0.00000000E+00  0.00000000E+00
  0.00000000E+00  0.00000000E+00  0.00000000E+00
  0.00000000E+00  0.00000000E+00  0.00000000E+00
  0.00000000E+00  0.00000000E+00  0.00000000E+00
  0.00000000E+00  0.00000000E+00  0.00000000E+00
  0.00000000E+00  0.00000000E+00  0.00000000E+00
  0.00000000E+00  0.00000000E+00  0.00000000E+00
