Poscar file generated with pyiron       
   1.00000000000000     
     8.4003420000000002    0.1741490000000000   -0.1538330000000000
    -0.1779640000000000    8.9909829999999999    0.5129920000000000
     0.2438940000000000   -0.7039460000000000   12.4699969999999993
   Cs   I    Pb
     4    12     4
Direct
  0.1034848024491239  0.4663438539542710  0.2199816998147170
  0.0415526896270606  0.3007099335005066  0.7198155582510637
  0.6033205288740575  0.8017877909759363  0.7190431825715820
  0.5418132717804269  0.9683745948024765  0.2191230702453240
  0.2571286051623929  0.1918119344888041  0.4300838261824182
  0.8896878659479839  0.5756457667016832  0.5092115033994347
  0.7572947762617304  0.0765860022432534  0.5085119025765579
  0.3897512248104604  0.6928294889449944  0.4297336270009282
  0.8881188994772558  0.5760056782890928  0.9295045527387487
  0.2554696216330967  0.1923448727201560  0.0089501467367867
  0.3883806212845897  0.6929149871956426  0.0089668075668357
  0.7553790397681936  0.0763302138201993  0.9300311019073106
  0.1538368358814779  0.8861553264182405  0.7195436978642817
  0.9900799448823392  0.8804159493176797  0.2195648049370149
  0.6538255853220178  0.3828218539166812  0.2191735276899820
  0.4904608657178429  0.3872702071207144  0.7192677117958723
  0.0732574458423585  0.8838827711120558  0.4695000457065603
  0.5731819255363604  0.3844847105779294  0.4693544147791684
  0.0715910862522549  0.8840531130132234  0.9696530249283768
  0.5716287359510730  0.3847909024833882  0.9692414140040313
 
  0.00000000E+00  0.00000000E+00  0.00000000E+00
  0.00000000E+00  0.00000000E+00  0.00000000E+00
  0.00000000E+00  0.00000000E+00  0.00000000E+00
  0.00000000E+00  0.00000000E+00  0.00000000E+00
  0.00000000E+00  0.00000000E+00  0.00000000E+00
  0.00000000E+00  0.00000000E+00  0.00000000E+00
  0.00000000E+00  0.00000000E+00  0.00000000E+00
  0.00000000E+00  0.00000000E+00  0.00000000E+00
  0.00000000E+00  0.00000000E+00  0.00000000E+00
  0.00000000E+00  0.00000000E+00  0.00000000E+00
  0.00000000E+00  0.00000000E+00  0.00000000E+00
  0.00000000E+00  0.00000000E+00  0.00000000E+00
  0.00000000E+00  0.00000000E+00  0.00000000E+00
  0.00000000E+00  0.00000000E+00  0.00000000E+00
  0.00000000E+00  0.00000000E+00  0.00000000E+00
  0.00000000E+00  0.00000000E+00  0.00000000E+00
  0.00000000E+00  0.00000000E+00  0.00000000E+00
  0.00000000E+00  0.00000000E+00  0.00000000E+00
  0.00000000E+00  0.00000000E+00  0.00000000E+00
  0.00000000E+00  0.00000000E+00  0.00000000E+00
