Poscar file generated with pyiron       
   1.00000000000000     
     8.4331969999999998    0.1086370000000000   -0.1727570000000000
    -0.1051120000000000    8.9958899999999993    0.1472030000000000
     0.2583160000000000   -0.2071560000000000   12.4822749999999996
   Cs   I    Pb
     4    12     4
Direct
  0.0810021704604864  0.3587514060412076  0.2241152461664413
  0.0230176537966997  0.5187253680199078  0.7240486415580634
  0.5788968756639292  0.0221869468043323  0.7243799976627301
  0.5211075118763162  0.8600612764679454  0.2243826469776238
  0.3648419099188303  0.1340709479180475  0.4355899456454182
  0.7362950877139198  0.7478572053212673  0.5139099790145139
  0.8651976511415640  0.2461769158659521  0.5141222734633146
  0.2366243865825979  0.6325944972778572  0.4342065910933002
  0.7359567858603242  0.7472048105758304  0.9348878597265227
  0.3646971217363983  0.1332223926221943  0.0130287648607563
  0.2367779485028123  0.6327142420765313  0.0145233103584417
  0.8651331192290357  0.2460777710666662  0.9339109342015348
  0.1323430438535809  0.9336720848339652  0.7243086202177196
  0.9687443584054520  0.9442581941019270  0.2243477321836238
  0.6344358615851320  0.4437953282905127  0.2243740142448303
  0.4722274761934813  0.4399532146515455  0.7244176606311683
  0.0509430093348939  0.9392736099705559  0.4743217478021862
  0.5517838888634543  0.4403931415323470  0.4741425723398791
  0.0501948508591425  0.9388754081084301  0.9743224686528293
  0.5514914104478379  0.4396209696675086  0.9747699131896894
 
  0.00000000E+00  0.00000000E+00  0.00000000E+00
  0.00000000E+00  0.00000000E+00  0.00000000E+00
  0.00000000E+00  0.00000000E+00  0.00000000E+00
  0.00000000E+00  0.00000000E+00  0.00000000E+00
  0.00000000E+00  0.00000000E+00  0.00000000E+00
  0.00000000E+00  0.00000000E+00  0.00000000E+00
  0.00000000E+00  0.00000000E+00  0.00000000E+00
  0.00000000E+00  0.00000000E+00  0.00000000E+00
  0.00000000E+00  0.00000000E+00  0.00000000E+00
  0.00000000E+00  0.00000000E+00  0.00000000E+00
  0.00000000E+00  0.00000000E+00  0.00000000E+00
  0.00000000E+00  0.00000000E+00  0.00000000E+00
  0.00000000E+00  0.00000000E+00  0.00000000E+00
  0.00000000E+00  0.00000000E+00  0.00000000E+00
  0.00000000E+00  0.00000000E+00  0.00000000E+00
  0.00000000E+00  0.00000000E+00  0.00000000E+00
  0.00000000E+00  0.00000000E+00  0.00000000E+00
  0.00000000E+00  0.00000000E+00  0.00000000E+00
  0.00000000E+00  0.00000000E+00  0.00000000E+00
  0.00000000E+00  0.00000000E+00  0.00000000E+00
