Poscar file generated with pyiron       
   1.00000000000000     
     8.8402449838700541   -0.2273879328987775   -0.2630835548583834
    -0.1028701656124058    8.8480972233791277    0.3337698300705986
     0.1749068094109968   -0.3431647453228692   12.3115228686197220
   Cs   I    Pb
     4    12     4
Direct
  0.0768925962981909  0.3458237248172807  0.2188346345372013
  0.0782712689932064  0.3477346084736291  0.6993318391221748
  0.5782700755627392  0.8488720130406525  0.7210362432540142
  0.5802293455618197  0.8489485767121354  0.2006777694341423
  0.3468917048508438  0.0775431130732941  0.3948103142851086
  0.8071783405014515  0.6181170058291920  0.5253008850934060
  0.8513051498242333  0.1212041966358427  0.4577873919168287
  0.3024587199054131  0.5723421246597603  0.4610040775124506
  0.8483347536668853  0.5784605050041272  0.8944742767562803
  0.3108853562046796  0.1167595119330651  0.0252768652607525
  0.3530101555207267  0.6220652498636959  0.9586959112706791
  0.8065252719638832  0.0755559397183102  0.9620821309024706
  0.1432364263695642  0.9146605727121180  0.7099206361896153
  0.0140198270523980  0.7798134363524094  0.2094840330730285
  0.6428731903301814  0.4154778907642434  0.2103369509153593
  0.5132756296934841  0.2812544791425304  0.7099368085860871
  0.0775582313884804  0.8470983214397372  0.4597941494594108
  0.5774016300945087  0.3476108099197793  0.4599267515581775
  0.0791606723109036  0.8479149105087950  0.9598723757401412
  0.5789537733471434  0.3484159168166545  0.9600690432933753
 
  0.00000000E+00  0.00000000E+00  0.00000000E+00
  0.00000000E+00  0.00000000E+00  0.00000000E+00
  0.00000000E+00  0.00000000E+00  0.00000000E+00
  0.00000000E+00  0.00000000E+00  0.00000000E+00
  0.00000000E+00  0.00000000E+00  0.00000000E+00
  0.00000000E+00  0.00000000E+00  0.00000000E+00
  0.00000000E+00  0.00000000E+00  0.00000000E+00
  0.00000000E+00  0.00000000E+00  0.00000000E+00
  0.00000000E+00  0.00000000E+00  0.00000000E+00
  0.00000000E+00  0.00000000E+00  0.00000000E+00
  0.00000000E+00  0.00000000E+00  0.00000000E+00
  0.00000000E+00  0.00000000E+00  0.00000000E+00
  0.00000000E+00  0.00000000E+00  0.00000000E+00
  0.00000000E+00  0.00000000E+00  0.00000000E+00
  0.00000000E+00  0.00000000E+00  0.00000000E+00
  0.00000000E+00  0.00000000E+00  0.00000000E+00
  0.00000000E+00  0.00000000E+00  0.00000000E+00
  0.00000000E+00  0.00000000E+00  0.00000000E+00
  0.00000000E+00  0.00000000E+00  0.00000000E+00
  0.00000000E+00  0.00000000E+00  0.00000000E+00
