Poscar file generated with pyiron       
   1.00000000000000     
     8.4135969999999993   -0.0664120000000000   -0.2791750000000000
     0.0780780000000000    8.9962879999999998    0.3079110000000000
     0.4072950000000000   -0.4349640000000000   12.4689470000000000
   Cs   I    Pb
     4    12     4
Direct
  0.0945436402929616  0.3330698954927840  0.2169549934928057
  0.0347930859245125  0.4971338164566461  0.7171290458451622
  0.5943939025781191  0.9980899201640554  0.7165354284797942
  0.5346327493784955  0.8344140459445697  0.2168169505265283
  0.3796445357838110  0.1086256753683585  0.4269023053521082
  0.7497444902423638  0.7230612101662288  0.5069516472698226
  0.8800556496790364  0.2229659475232282  0.5064081193095618
  0.2496095263109552  0.6079971979965109  0.4271117532859421
  0.7491305378846675  0.7230923878705440  0.9266193437976682
  0.3792014181845502  0.1086855677125556  0.0066741788701847
  0.2489678587312198  0.6081244403439854  0.0064854068164024
  0.8790647572760690  0.2227644152757406  0.9274298258338547
  0.1465920468519499  0.9122082762332582  0.7168732026733977
  0.9825465649597049  0.9179273698978250  0.2168314862634801
  0.6471431939593302  0.4201611135035463  0.2166880454786266
  0.4830400321375379  0.4128256719652086  0.7166848371523713
  0.0647687060577269  0.9152871862467578  0.4667251578454952
  0.5649828980177745  0.4158702127451761  0.4666203163036258
  0.0643962913292881  0.9153567954051312  0.9667176936964310
  0.5643394032865814  0.4158628119220111  0.9667468421613776
 
  0.00000000E+00  0.00000000E+00  0.00000000E+00
  0.00000000E+00  0.00000000E+00  0.00000000E+00
  0.00000000E+00  0.00000000E+00  0.00000000E+00
  0.00000000E+00  0.00000000E+00  0.00000000E+00
  0.00000000E+00  0.00000000E+00  0.00000000E+00
  0.00000000E+00  0.00000000E+00  0.00000000E+00
  0.00000000E+00  0.00000000E+00  0.00000000E+00
  0.00000000E+00  0.00000000E+00  0.00000000E+00
  0.00000000E+00  0.00000000E+00  0.00000000E+00
  0.00000000E+00  0.00000000E+00  0.00000000E+00
  0.00000000E+00  0.00000000E+00  0.00000000E+00
  0.00000000E+00  0.00000000E+00  0.00000000E+00
  0.00000000E+00  0.00000000E+00  0.00000000E+00
  0.00000000E+00  0.00000000E+00  0.00000000E+00
  0.00000000E+00  0.00000000E+00  0.00000000E+00
  0.00000000E+00  0.00000000E+00  0.00000000E+00
  0.00000000E+00  0.00000000E+00  0.00000000E+00
  0.00000000E+00  0.00000000E+00  0.00000000E+00
  0.00000000E+00  0.00000000E+00  0.00000000E+00
  0.00000000E+00  0.00000000E+00  0.00000000E+00
