Poscar file generated with pyiron       
   1.00000000000000     
     8.4131513318189111    0.2220774760488341   -0.3870853925137999
    -0.2249647729487455    8.9893612127939697    0.4889853415548260
     0.5880264769362036   -0.6609932083043746   12.4458137228108683
   Cs   I    Pb
     4    12     4
Direct
  0.1239102077536418  0.4522106171773939  0.2330920265197964
  0.0626159238080483  0.2885880866463361  0.7330760969493370
  0.6230605942177375  0.7881635400395083  0.7319668251578012
  0.5630473559958549  0.9522962355342128  0.2318203277061581
  0.2798333128795827  0.1767475272239284  0.4424817946190508
  0.9090736099888037  0.5631387475446761  0.5225030620838327
  0.7799675857106974  0.0634830525468154  0.5217713924603242
  0.4089385821726046  0.6771198612089413  0.4432644921970473
  0.9061996637624860  0.5640181115770045  0.9426696232989907
  0.2770650832123925  0.1776475474302372  0.0228025076192571
  0.4060422428703060  0.6769800101518934  0.0217940522957552
  0.7772108408006877  0.0636491997085570  0.9431804494254880
  0.1760968032609580  0.8745045558405139  0.7329759381758559
  0.0101844618643449  0.8667012591067387  0.2329209038234388
  0.6758728180955151  0.3680945733066053  0.2323248006619309
  0.5105627945164506  0.3722778412450632  0.7323313479150084
  0.0944335258774467  0.8701558810656599  0.4828745572238827
  0.5943563000312962  0.3700042731490752  0.4824350850809100
  0.0917159684685404  0.8707140037004872  0.9828950819609451
  0.5918833686534490  0.3706191170479480  0.9824875844485842
 
  0.00000000E+00  0.00000000E+00  0.00000000E+00
  0.00000000E+00  0.00000000E+00  0.00000000E+00
  0.00000000E+00  0.00000000E+00  0.00000000E+00
  0.00000000E+00  0.00000000E+00  0.00000000E+00
  0.00000000E+00  0.00000000E+00  0.00000000E+00
  0.00000000E+00  0.00000000E+00  0.00000000E+00
  0.00000000E+00  0.00000000E+00  0.00000000E+00
  0.00000000E+00  0.00000000E+00  0.00000000E+00
  0.00000000E+00  0.00000000E+00  0.00000000E+00
  0.00000000E+00  0.00000000E+00  0.00000000E+00
  0.00000000E+00  0.00000000E+00  0.00000000E+00
  0.00000000E+00  0.00000000E+00  0.00000000E+00
  0.00000000E+00  0.00000000E+00  0.00000000E+00
  0.00000000E+00  0.00000000E+00  0.00000000E+00
  0.00000000E+00  0.00000000E+00  0.00000000E+00
  0.00000000E+00  0.00000000E+00  0.00000000E+00
  0.00000000E+00  0.00000000E+00  0.00000000E+00
  0.00000000E+00  0.00000000E+00  0.00000000E+00
  0.00000000E+00  0.00000000E+00  0.00000000E+00
  0.00000000E+00  0.00000000E+00  0.00000000E+00
