Poscar file generated with pyiron       
   1.00000000000000     
     8.4423822087035276    0.0153440628518056   -0.2101080699015034
    -0.0159568296533370    8.9826478966536314    0.2689821122825837
     0.3102496221746678   -0.3710115750645712   12.4606523990652711
   Cs   I    Pb
     4    12     4
Direct
  0.0787952901180528  0.3452168522417059  0.2269947740776541
  0.0215855460386902  0.5057551775969087  0.7272483917276449
  0.5791484359566706  0.0045107192583942  0.7268306810015168
  0.5216678238644495  0.8448876102225026  0.2269517973269268
  0.3635270013848063  0.1186569101247381  0.4366416014363056
  0.7371222146963112  0.7308995333856843  0.5172361656387059
  0.8639092977406111  0.2314635899317788  0.5168224208980744
  0.2373829446879482  0.6189724147620208  0.4372837449951684
  0.7371634092430155  0.7314834336083265  0.9369290541448775
  0.3637484663684254  0.1190177050690760  0.0172571226826410
  0.2372581091409388  0.6192505779899746  0.0165803234694198
  0.8636652825616555  0.2316774879395084  0.9374289604683308
  0.1325590466757806  0.9222638422970267  0.7270586576526932
  0.9682645251249956  0.9283221673192195  0.2270608536610309
  0.6325069201018706  0.4292096358108219  0.2270158145632860
  0.4671949159708441  0.4196357583113006  0.7270121029555544
  0.0502858100288313  0.9249663538354085  0.4770592025231762
  0.5503451823702351  0.4246651902426141  0.4770727236183316
  0.0504728561908818  0.9255748251175512  0.9770552735755994
  0.5503031963651467  0.4253050931504996  0.9769102148152188
 
  0.00000000E+00  0.00000000E+00  0.00000000E+00
  0.00000000E+00  0.00000000E+00  0.00000000E+00
  0.00000000E+00  0.00000000E+00  0.00000000E+00
  0.00000000E+00  0.00000000E+00  0.00000000E+00
  0.00000000E+00  0.00000000E+00  0.00000000E+00
  0.00000000E+00  0.00000000E+00  0.00000000E+00
  0.00000000E+00  0.00000000E+00  0.00000000E+00
  0.00000000E+00  0.00000000E+00  0.00000000E+00
  0.00000000E+00  0.00000000E+00  0.00000000E+00
  0.00000000E+00  0.00000000E+00  0.00000000E+00
  0.00000000E+00  0.00000000E+00  0.00000000E+00
  0.00000000E+00  0.00000000E+00  0.00000000E+00
  0.00000000E+00  0.00000000E+00  0.00000000E+00
  0.00000000E+00  0.00000000E+00  0.00000000E+00
  0.00000000E+00  0.00000000E+00  0.00000000E+00
  0.00000000E+00  0.00000000E+00  0.00000000E+00
  0.00000000E+00  0.00000000E+00  0.00000000E+00
  0.00000000E+00  0.00000000E+00  0.00000000E+00
  0.00000000E+00  0.00000000E+00  0.00000000E+00
  0.00000000E+00  0.00000000E+00  0.00000000E+00
