Poscar file generated with pyiron       
   1.00000000000000     
     8.3740215186263978    0.0265631596834709    0.9091078299655637
    -0.0597226642402902   14.3121627375390510    0.2071753154606863
     0.0268120739322740   -0.1211625655677411    7.8883281147152466
   Cs   I    Pb
     4    12     4
Direct
  0.4981860241677549  0.1732911047576994  0.2607901450989988
  0.9613806687963935  0.3477515939019937  0.8114707675273007
  0.9593237080871655  0.6719642888682370  0.3065690480804498
  0.4964703751014749  0.8484304546939400  0.7574896178856265
  0.2529714842004454  0.0964912462512939  0.6824103662041175
  0.2067793204366167  0.4183204980337681  0.3860918679086373
  0.7255564349424463  0.1011283697053276  0.7458751053568281
  0.7344450904863531  0.4190997212106949  0.3190684377851986
  0.4567515336851072  0.3311374066080559  0.8653449714551330
  0.0043329028576636  0.1864869328223543  0.2013070096618086
  0.7349629646369364  0.5972730803405309  0.8218461753242621
  0.7183656523561556  0.9231837840564403  0.2474081890062813
  0.2089781740848058  0.6019720338574780  0.8835224683408620
  0.2442638339394843  0.9127766496427883  0.1821994516601658
  0.9910210726965614  0.8309478108935785  0.7023712814384379
  0.4632593665769658  0.6868486047592306  0.3652599984859292
  0.9890523983532863  0.0104084621678181  0.4670471099451069
  0.9883017455935625  0.0071629706554676  0.9673749277927969
  0.4687916234126939  0.5074122126032597  0.5999244336348186
  0.4672921889241884  0.5106935955547395  0.0999488648833593
 
  0.00000000E+00  0.00000000E+00  0.00000000E+00
  0.00000000E+00  0.00000000E+00  0.00000000E+00
  0.00000000E+00  0.00000000E+00  0.00000000E+00
  0.00000000E+00  0.00000000E+00  0.00000000E+00
  0.00000000E+00  0.00000000E+00  0.00000000E+00
  0.00000000E+00  0.00000000E+00  0.00000000E+00
  0.00000000E+00  0.00000000E+00  0.00000000E+00
  0.00000000E+00  0.00000000E+00  0.00000000E+00
  0.00000000E+00  0.00000000E+00  0.00000000E+00
  0.00000000E+00  0.00000000E+00  0.00000000E+00
  0.00000000E+00  0.00000000E+00  0.00000000E+00
  0.00000000E+00  0.00000000E+00  0.00000000E+00
  0.00000000E+00  0.00000000E+00  0.00000000E+00
  0.00000000E+00  0.00000000E+00  0.00000000E+00
  0.00000000E+00  0.00000000E+00  0.00000000E+00
  0.00000000E+00  0.00000000E+00  0.00000000E+00
  0.00000000E+00  0.00000000E+00  0.00000000E+00
  0.00000000E+00  0.00000000E+00  0.00000000E+00
  0.00000000E+00  0.00000000E+00  0.00000000E+00
  0.00000000E+00  0.00000000E+00  0.00000000E+00
