Poscar file generated with pyiron       
   1.00000000000000     
     8.3156225994721176    0.1103019303313045    1.0458093407320683
    -0.1002520498013940   14.4777924961702649   -0.5196409110355525
     0.2965167894951166    0.2351108558220099    7.8976128001180710
   Cs   I    Pb
     4    12     4
Direct
  0.4786993876265520  0.1871129649975696  0.2185491260314820
  0.9587393612738698  0.3452926133869523  0.7782643959415850
  0.9574378333715056  0.6784863946604117  0.2808152894848833
  0.4774533439778280  0.8512661569551228  0.7125203854436408
  0.2501710076059023  0.0947851851756279  0.6498246897237367
  0.1890067166133979  0.4339739031295339  0.3452676456054300
  0.7142033674997792  0.1095601282311817  0.7463220933031516
  0.7248841941694553  0.4232557673106758  0.2469501876996646
  0.4350593844944906  0.3404629560798021  0.8124287486216386
  0.0038342612554520  0.1906008665108946  0.1830772962650410
  0.7394249417280114  0.5921582741638595  0.7501544461218176
  0.6946610509026668  0.9411278227450051  0.2457625251759495
  0.2069824844487005  0.6163756174630332  0.8406298268081167
  0.2254879268464476  0.9116196807498249  0.1531777351994069
  0.9631296333507884  0.8394614304802613  0.6855811119006419
  0.4708061054548922  0.6918581096868851  0.3106171482994151
  0.9754846648847948  0.0164913409557269  0.4475217768829972
  0.9754167304960121  0.0131136337518012  0.9489343474122390
  0.4615005754719927  0.5142284005766131  0.5474081353866311
  0.4602842059682378  0.5184007090231998  0.0462045780993217
 
  0.00000000E+00  0.00000000E+00  0.00000000E+00
  0.00000000E+00  0.00000000E+00  0.00000000E+00
  0.00000000E+00  0.00000000E+00  0.00000000E+00
  0.00000000E+00  0.00000000E+00  0.00000000E+00
  0.00000000E+00  0.00000000E+00  0.00000000E+00
  0.00000000E+00  0.00000000E+00  0.00000000E+00
  0.00000000E+00  0.00000000E+00  0.00000000E+00
  0.00000000E+00  0.00000000E+00  0.00000000E+00
  0.00000000E+00  0.00000000E+00  0.00000000E+00
  0.00000000E+00  0.00000000E+00  0.00000000E+00
  0.00000000E+00  0.00000000E+00  0.00000000E+00
  0.00000000E+00  0.00000000E+00  0.00000000E+00
  0.00000000E+00  0.00000000E+00  0.00000000E+00
  0.00000000E+00  0.00000000E+00  0.00000000E+00
  0.00000000E+00  0.00000000E+00  0.00000000E+00
  0.00000000E+00  0.00000000E+00  0.00000000E+00
  0.00000000E+00  0.00000000E+00  0.00000000E+00
  0.00000000E+00  0.00000000E+00  0.00000000E+00
  0.00000000E+00  0.00000000E+00  0.00000000E+00
  0.00000000E+00  0.00000000E+00  0.00000000E+00
