Poscar file generated with pyiron       
   1.00000000000000     
     8.4743786243978310   -0.0197791465218694   -0.2691178180611591
    -0.0216555639388748   13.9862336416160105    0.1770440962549690
     0.1382714925200970   -0.1133164070333083    7.9656999709255842
   Cs   I    Pb
     4    12     4
Direct
  0.4862870987158256  0.1475424504366911  0.2651265073805772
  0.9915628676376297  0.3264431617569898  0.7784625953062293
  0.0003131160304052  0.6461819715281111  0.2776623142227053
  0.4782666056283446  0.8276987562826865  0.7660925115201193
  0.2396965562392059  0.0855193598369247  0.6805035000162517
  0.2381574874642848  0.3885998093425877  0.3629403870902475
  0.7219769339833862  0.0721375223344189  0.6725469959082797
  0.7557396071766591  0.4015618136829894  0.3706103040188595
  0.5081974757538408  0.3063204912702052  0.8707625216135114
  0.9693628168743836  0.1676413497282865  0.1724769130465953
  0.7436015691590234  0.5869605265651411  0.8712433085364532
  0.7350430394556960  0.8865579224670345  0.1721104332997139
  0.2271140078417558  0.5731040400097229  0.8627911935962674
  0.2511334391771318  0.9010978843270044  0.1804534997947625
  0.9979687771548520  0.8055448506303131  0.6716235353077633
  0.4802693472814439  0.6685120010223982  0.3715608457446644
  0.9859513467082361  0.9870094810640603  0.4354144325272974
  0.9853940099732508  0.9860399286461924  0.9355758727975790
  0.4921702017934779  0.4870536443343208  0.6078535558841381
  0.4926052229728851  0.4878762682172581  0.1076792537320715
 
  0.00000000E+00  0.00000000E+00  0.00000000E+00
  0.00000000E+00  0.00000000E+00  0.00000000E+00
  0.00000000E+00  0.00000000E+00  0.00000000E+00
  0.00000000E+00  0.00000000E+00  0.00000000E+00
  0.00000000E+00  0.00000000E+00  0.00000000E+00
  0.00000000E+00  0.00000000E+00  0.00000000E+00
  0.00000000E+00  0.00000000E+00  0.00000000E+00
  0.00000000E+00  0.00000000E+00  0.00000000E+00
  0.00000000E+00  0.00000000E+00  0.00000000E+00
  0.00000000E+00  0.00000000E+00  0.00000000E+00
  0.00000000E+00  0.00000000E+00  0.00000000E+00
  0.00000000E+00  0.00000000E+00  0.00000000E+00
  0.00000000E+00  0.00000000E+00  0.00000000E+00
  0.00000000E+00  0.00000000E+00  0.00000000E+00
  0.00000000E+00  0.00000000E+00  0.00000000E+00
  0.00000000E+00  0.00000000E+00  0.00000000E+00
  0.00000000E+00  0.00000000E+00  0.00000000E+00
  0.00000000E+00  0.00000000E+00  0.00000000E+00
  0.00000000E+00  0.00000000E+00  0.00000000E+00
  0.00000000E+00  0.00000000E+00  0.00000000E+00
