Poscar file generated with pyiron       
   1.00000000000000     
     8.3588543865649765   -0.1853077943739831    1.0278329696308102
     0.2942428710320358   14.2923321186791394    0.2369106166014469
    -0.1356697524288515   -0.1694597975281979    7.8828422097630666
   Cs   I    Pb
     4    12     4
Direct
  0.4966375145404299  0.1823702682919534  0.2319756410724619
  0.9617228108378530  0.3572923158125365  0.7837974505000508
  0.9545239340543410  0.6796504040815082  0.2705183453590513
  0.4971115508733756  0.8577180275091867  0.7265574607470191
  0.2543054385736035  0.1009655065131093  0.6507915209821875
  0.2035045033976942  0.4275686260779691  0.3559947419437102
  0.7278977131390238  0.1118029776153892  0.7097768649423999
  0.7320911603778031  0.4259598219700268  0.2879087197419736
  0.4532075232194470  0.3386653147327632  0.8338512255752725
  0.0078205124588046  0.1937889399083829  0.1695474839523088
  0.7327676176422521  0.6049722525190236  0.7964830428756612
  0.7141580339334578  0.9329866669652888  0.2113836561281370
  0.2082987079166632  0.6108262315504946  0.8504689999943273
  0.2383759075747749  0.9158601262596966  0.1491336931869327
  0.9847217238086310  0.8379651286553600  0.6684202282465348
  0.4638710600874956  0.6948300157647809  0.3362079449973228
  0.9879681041240804  0.0174095702643483  0.4334515182255042
  0.9867286684623771  0.0145815882413962  0.9340297292620664
  0.4679252015249405  0.5153328881252606  0.5694985507581533
  0.4642120761563042  0.5184868469011069  0.0696726291772205
 
  0.00000000E+00  0.00000000E+00  0.00000000E+00
  0.00000000E+00  0.00000000E+00  0.00000000E+00
  0.00000000E+00  0.00000000E+00  0.00000000E+00
  0.00000000E+00  0.00000000E+00  0.00000000E+00
  0.00000000E+00  0.00000000E+00  0.00000000E+00
  0.00000000E+00  0.00000000E+00  0.00000000E+00
  0.00000000E+00  0.00000000E+00  0.00000000E+00
  0.00000000E+00  0.00000000E+00  0.00000000E+00
  0.00000000E+00  0.00000000E+00  0.00000000E+00
  0.00000000E+00  0.00000000E+00  0.00000000E+00
  0.00000000E+00  0.00000000E+00  0.00000000E+00
  0.00000000E+00  0.00000000E+00  0.00000000E+00
  0.00000000E+00  0.00000000E+00  0.00000000E+00
  0.00000000E+00  0.00000000E+00  0.00000000E+00
  0.00000000E+00  0.00000000E+00  0.00000000E+00
  0.00000000E+00  0.00000000E+00  0.00000000E+00
  0.00000000E+00  0.00000000E+00  0.00000000E+00
  0.00000000E+00  0.00000000E+00  0.00000000E+00
  0.00000000E+00  0.00000000E+00  0.00000000E+00
  0.00000000E+00  0.00000000E+00  0.00000000E+00
