Poscar file generated with pyiron       
   1.00000000000000     
     8.4718350000000004    0.0630420000000000   -0.1493060000000000
    -0.1434840000000000   13.9410329999999991    0.1544430000000000
     0.1707700000000000   -0.0862700000000000    7.9878330000000002
   Cs   I    Pb
     4    12     4
Direct
  0.4847745058889288  0.1527204616709739  0.2613828016515143
  0.9724120885804766  0.3346548397278326  0.7752519456319362
  0.9791442497360592  0.6525737736180162  0.2747116514842389
  0.4776871626538650  0.8348463717876129  0.7610573743416538
  0.2335008023246203  0.0921477544965299  0.6691546349716404
  0.2234763415754912  0.3956487864998124  0.3674751030433114
  0.7175066472268128  0.0812485047314624  0.6713603807719366
  0.7395706072624435  0.4054488966856198  0.3656493165704049
  0.4886105942775245  0.3121825596874501  0.8704161869090896
  0.9700759102734509  0.1750361117465360  0.1663173803417450
  0.7307934047956977  0.5918222446102916  0.8654492148102335
  0.7264990276084546  0.8956300807939996  0.1712424210506924
  0.2145645191379373  0.5811028644515162  0.8675938213521306
  0.2430624727544597  0.9059696905857066  0.1695283552887759
  0.9918087003878995  0.8121005440692031  0.6663121344803926
  0.4662249120686752  0.6750025513631073  0.3703463713738699
  0.9809933641668565  0.9940356597549140  0.4298513324224942
  0.9804131699937102  0.9930771845879320  0.9297890000501994
  0.4764064282539380  0.4930819756600613  0.6071819834711789
  0.4772929624464552  0.4939564508367482  0.1072027258360748
 
  0.00000000E+00  0.00000000E+00  0.00000000E+00
  0.00000000E+00  0.00000000E+00  0.00000000E+00
  0.00000000E+00  0.00000000E+00  0.00000000E+00
  0.00000000E+00  0.00000000E+00  0.00000000E+00
  0.00000000E+00  0.00000000E+00  0.00000000E+00
  0.00000000E+00  0.00000000E+00  0.00000000E+00
  0.00000000E+00  0.00000000E+00  0.00000000E+00
  0.00000000E+00  0.00000000E+00  0.00000000E+00
  0.00000000E+00  0.00000000E+00  0.00000000E+00
  0.00000000E+00  0.00000000E+00  0.00000000E+00
  0.00000000E+00  0.00000000E+00  0.00000000E+00
  0.00000000E+00  0.00000000E+00  0.00000000E+00
  0.00000000E+00  0.00000000E+00  0.00000000E+00
  0.00000000E+00  0.00000000E+00  0.00000000E+00
  0.00000000E+00  0.00000000E+00  0.00000000E+00
  0.00000000E+00  0.00000000E+00  0.00000000E+00
  0.00000000E+00  0.00000000E+00  0.00000000E+00
  0.00000000E+00  0.00000000E+00  0.00000000E+00
  0.00000000E+00  0.00000000E+00  0.00000000E+00
  0.00000000E+00  0.00000000E+00  0.00000000E+00
