Poscar file generated with pyiron       
   1.00000000000000     
     8.2810924124515211    0.0393796774710235    1.1155373201341445
     0.0650592228927959   14.7085402991632304   -0.7190706672272665
     0.2869008121023036   -0.1027025298737277    7.8265527695839978
   Cs   I    Pb
     4    12     4
Direct
  0.4800533166260416  0.1915554151784003  0.2522137281580245
  0.9774561324228660  0.3251652504992005  0.7337702153473050
  0.9848872137680216  0.6687651189594552  0.2710054427149520
  0.4728481245634280  0.8483402879664266  0.7135387662306805
  0.2454935637768088  0.0838249508621838  0.6774171221703783
  0.2104443403079298  0.4330780815692295  0.3058756242076574
  0.7066038325978455  0.1035930047302273  0.7863232221236696
  0.7486706953341753  0.4137837359559215  0.1970384863988112
  0.4533488883509748  0.3359034857499200  0.7487184696918497
  0.0020234770161706  0.1815074945940053  0.2339028463991392
  0.7784391486332940  0.5713470139872679  0.7172805254605352
  0.6777948265117075  0.9453010933771426  0.2658121800953734
  0.2406019270571258  0.6188701376325506  0.8148355880797341
  0.2156600393011724  0.8992286136458570  0.1685244886153970
  0.9488665822173157  0.8328347014524967  0.7016672179712165
  0.5076866790187817  0.6845082896074004  0.2809239697990262
  0.9671405210415833  0.0074651115641389  0.4713634514085926
  0.9677986408557112  0.0058980779019065  0.9743122466223850
  0.4884873529454208  0.5100810896441895  0.5117312566674849
  0.4878222321251047  0.5113395063736036  0.0087102767531088
 
  0.00000000E+00  0.00000000E+00  0.00000000E+00
  0.00000000E+00  0.00000000E+00  0.00000000E+00
  0.00000000E+00  0.00000000E+00  0.00000000E+00
  0.00000000E+00  0.00000000E+00  0.00000000E+00
  0.00000000E+00  0.00000000E+00  0.00000000E+00
  0.00000000E+00  0.00000000E+00  0.00000000E+00
  0.00000000E+00  0.00000000E+00  0.00000000E+00
  0.00000000E+00  0.00000000E+00  0.00000000E+00
  0.00000000E+00  0.00000000E+00  0.00000000E+00
  0.00000000E+00  0.00000000E+00  0.00000000E+00
  0.00000000E+00  0.00000000E+00  0.00000000E+00
  0.00000000E+00  0.00000000E+00  0.00000000E+00
  0.00000000E+00  0.00000000E+00  0.00000000E+00
  0.00000000E+00  0.00000000E+00  0.00000000E+00
  0.00000000E+00  0.00000000E+00  0.00000000E+00
  0.00000000E+00  0.00000000E+00  0.00000000E+00
  0.00000000E+00  0.00000000E+00  0.00000000E+00
  0.00000000E+00  0.00000000E+00  0.00000000E+00
  0.00000000E+00  0.00000000E+00  0.00000000E+00
  0.00000000E+00  0.00000000E+00  0.00000000E+00
