Poscar file generated with pyiron       
   1.00000000000000     
     8.4621708365626152    0.3025331185673403    0.2077153097248255
    -0.5048970745430011   13.9026871361854436   -0.0633061683799152
    -0.1340672412374887    0.0336687691057722    8.0070124571623449
   Cs   I    Pb
     4    12     4
Direct
  0.4952660066062578  0.1722123641831171  0.2543467179893606
  0.9821183081818952  0.3560468197201930  0.7684155975090955
  0.9820204432454381  0.6721401176802704  0.2701572357485750
  0.4919745582474094  0.8560533654433159  0.7552959964787046
  0.2486567933287233  0.1099647753358278  0.6598190544895911
  0.2272023652033807  0.4213078340186349  0.3633095169082910
  0.7324867108431995  0.1059091906150783  0.6649427951771578
  0.7430302565964175  0.4209404880664238  0.3602771814947393
  0.4894827480692875  0.3327843410348998  0.8662000053520758
  0.9909657694243009  0.1963963571169519  0.1578640358684817
  0.7417137494005062  0.6097088327763697  0.8589203117777641
  0.7355534305862791  0.9200859269697043  0.1641142233979859
  0.2253274226190801  0.6054785757834856  0.8646931920069184
  0.2513395738545931  0.9225635700866421  0.1609935460505217
  0.9978536677768348  0.8329082196433616  0.6579974592173299
  0.4848722305947019  0.6962320833592703  0.3661751670427373
  0.9928865242245436  0.0152953622664289  0.4218196898344663
  0.9932189927824289  0.0140507506472178  0.9217149775908350
  0.4842972277808687  0.5138472144272420  0.6025228673909158
  0.4850660380888061  0.5150402166950452  0.1024737896963772
 
  0.00000000E+00  0.00000000E+00  0.00000000E+00
  0.00000000E+00  0.00000000E+00  0.00000000E+00
  0.00000000E+00  0.00000000E+00  0.00000000E+00
  0.00000000E+00  0.00000000E+00  0.00000000E+00
  0.00000000E+00  0.00000000E+00  0.00000000E+00
  0.00000000E+00  0.00000000E+00  0.00000000E+00
  0.00000000E+00  0.00000000E+00  0.00000000E+00
  0.00000000E+00  0.00000000E+00  0.00000000E+00
  0.00000000E+00  0.00000000E+00  0.00000000E+00
  0.00000000E+00  0.00000000E+00  0.00000000E+00
  0.00000000E+00  0.00000000E+00  0.00000000E+00
  0.00000000E+00  0.00000000E+00  0.00000000E+00
  0.00000000E+00  0.00000000E+00  0.00000000E+00
  0.00000000E+00  0.00000000E+00  0.00000000E+00
  0.00000000E+00  0.00000000E+00  0.00000000E+00
  0.00000000E+00  0.00000000E+00  0.00000000E+00
  0.00000000E+00  0.00000000E+00  0.00000000E+00
  0.00000000E+00  0.00000000E+00  0.00000000E+00
  0.00000000E+00  0.00000000E+00  0.00000000E+00
  0.00000000E+00  0.00000000E+00  0.00000000E+00
