Poscar file generated with pyiron       
   1.00000000000000     
     8.2485636166975134    0.0355539539809011    1.2912037781045693
     0.1389652446504634   14.6950739659333980   -0.8700761820431729
     0.1411748057792715   -0.0887610685010557    7.8465888557776049
   Cs   I    Pb
     4    12     4
Direct
  0.4826021368640775  0.1794005204779683  0.2675747560273808
  0.9810961560933369  0.3166654040972478  0.7373544166480035
  0.9851896048077984  0.6605552313820734  0.2781243896082394
  0.4740813040485022  0.8354473806203331  0.7238564882362356
  0.2493601021913756  0.0728933921019402  0.6933558142520780
  0.2123747721688570  0.4223968099611610  0.3079634680671076
  0.7108167839776538  0.0940573701257166  0.8031513859232843
  0.7509447117641752  0.4025212435962461  0.1991822862568817
  0.4611741958974700  0.3248265483403586  0.7462735079346666
  0.0025119724649686  0.1709475287750007  0.2539602233871907
  0.7777217598554925  0.5630451503315943  0.7210394894570902
  0.6833296733750791  0.9328448601405369  0.2806765673071971
  0.2390560032255475  0.6055804104205631  0.8219200988995145
  0.2212865331127143  0.8897943895775472  0.1805729470056898
  0.9527201017137419  0.8224081166247265  0.7155815365291421
  0.5063683719650911  0.6736085761890799  0.2861338842476978
  0.9709379759895781  0.9967789872983822  0.4868589300723087
  0.9714077773793460  0.9957599046640208  0.9893081912499486
  0.4899402908396260  0.4994119538814768  0.5148812897921098
  0.4898179753470667  0.4999009187912589  0.0124095063767760
 
  0.00000000E+00  0.00000000E+00  0.00000000E+00
  0.00000000E+00  0.00000000E+00  0.00000000E+00
  0.00000000E+00  0.00000000E+00  0.00000000E+00
  0.00000000E+00  0.00000000E+00  0.00000000E+00
  0.00000000E+00  0.00000000E+00  0.00000000E+00
  0.00000000E+00  0.00000000E+00  0.00000000E+00
  0.00000000E+00  0.00000000E+00  0.00000000E+00
  0.00000000E+00  0.00000000E+00  0.00000000E+00
  0.00000000E+00  0.00000000E+00  0.00000000E+00
  0.00000000E+00  0.00000000E+00  0.00000000E+00
  0.00000000E+00  0.00000000E+00  0.00000000E+00
  0.00000000E+00  0.00000000E+00  0.00000000E+00
  0.00000000E+00  0.00000000E+00  0.00000000E+00
  0.00000000E+00  0.00000000E+00  0.00000000E+00
  0.00000000E+00  0.00000000E+00  0.00000000E+00
  0.00000000E+00  0.00000000E+00  0.00000000E+00
  0.00000000E+00  0.00000000E+00  0.00000000E+00
  0.00000000E+00  0.00000000E+00  0.00000000E+00
  0.00000000E+00  0.00000000E+00  0.00000000E+00
  0.00000000E+00  0.00000000E+00  0.00000000E+00
