Poscar file generated with pyiron       
   1.00000000000000     
     8.2285534077213942    0.1819677203045680    1.4721040430202834
     0.0428720852631672   14.5916046255878182   -1.4382407093361649
    -0.0302584538624588    0.1494357125461072    7.8667204912489233
   Cs   I    Pb
     4    12     4
Direct
  0.4733168356513238  0.1943102444340170  0.2971933407359021
  0.9750039534802508  0.3386724882391869  0.7666477417509665
  0.9684542764729247  0.6826575416199371  0.3023758542887636
  0.4745450254981352  0.8512661670393387  0.7572100790622707
  0.2450745590296579  0.0929311007993005  0.7287301158316883
  0.2025069801676453  0.4401602688317896  0.3340748938126592
  0.7060429562370804  0.1117762101122017  0.8370280884479882
  0.7418296046180394  0.4224858118349215  0.2250470684801619
  0.4576688920975002  0.3424166805050416  0.7698649050702027
  0.9880570093030430  0.1907648883240264  0.2939807668317274
  0.7614787865450203  0.5865569460627976  0.7509870808352470
  0.6876019766006223  0.9447328021818808  0.3109848630098432
  0.2248626392849182  0.6211941782776896  0.8514912506504915
  0.2237270260169048  0.9130485523392908  0.2105293994739578
  0.9564600664025442  0.8407794011311031  0.7453872019525828
  0.4867545147255196  0.6923591076825452  0.3183625730776354
  0.9685027238434749  0.0155529690774089  0.5209051801633118
  0.9691948175290553  0.0152873520273478  0.0222313491465045
  0.4786219123792871  0.5174397644545313  0.5424104087709574
  0.4778391494413698  0.5181203400986888  0.0406800759829057
 
  0.00000000E+00  0.00000000E+00  0.00000000E+00
  0.00000000E+00  0.00000000E+00  0.00000000E+00
  0.00000000E+00  0.00000000E+00  0.00000000E+00
  0.00000000E+00  0.00000000E+00  0.00000000E+00
  0.00000000E+00  0.00000000E+00  0.00000000E+00
  0.00000000E+00  0.00000000E+00  0.00000000E+00
  0.00000000E+00  0.00000000E+00  0.00000000E+00
  0.00000000E+00  0.00000000E+00  0.00000000E+00
  0.00000000E+00  0.00000000E+00  0.00000000E+00
  0.00000000E+00  0.00000000E+00  0.00000000E+00
  0.00000000E+00  0.00000000E+00  0.00000000E+00
  0.00000000E+00  0.00000000E+00  0.00000000E+00
  0.00000000E+00  0.00000000E+00  0.00000000E+00
  0.00000000E+00  0.00000000E+00  0.00000000E+00
  0.00000000E+00  0.00000000E+00  0.00000000E+00
  0.00000000E+00  0.00000000E+00  0.00000000E+00
  0.00000000E+00  0.00000000E+00  0.00000000E+00
  0.00000000E+00  0.00000000E+00  0.00000000E+00
  0.00000000E+00  0.00000000E+00  0.00000000E+00
  0.00000000E+00  0.00000000E+00  0.00000000E+00
