Poscar file generated with pyiron       
   1.00000000000000     
     8.2427312428895192    0.0374326187153829    1.3732571019076569
    -0.1460879801193344   14.5686264298996715    0.1968750055723740
     0.1009436519673026   -0.0223960074898037    7.8920018136212686
   Cs   I    Pb
     4    12     4
Direct
  0.4895632850399216  0.1969122458072499  0.2018827939171107
  0.9815428886975838  0.3606663335288151  0.7592577120487758
  0.9728399032589440  0.7070322354808806  0.2444285509267180
  0.4886905339256236  0.8540003652055370  0.7088137655396669
  0.2481599978812325  0.1268558191075547  0.6486570011917588
  0.2280659194582312  0.4277376707974734  0.3132407507131856
  0.7094387981128257  0.1053697435809137  0.7481814570642494
  0.7651699926904035  0.4573339721933498  0.2118803052281245
  0.4920575645207302  0.3538060548225072  0.7787681853701212
  0.9792783222098537  0.2049445121191123  0.1833618523302298
  0.7476452498659546  0.6200710929939124  0.7086452601922563
  0.7205549568575206  0.9408767575076329  0.2536203779761231
  0.2077522712708085  0.6097192843515100  0.8152668272152094
  0.2608884123462397  0.9474612175574231  0.1457119913875585
  0.0070120538923537  0.8542719077192279  0.6854723454719572
  0.4546123264579732  0.7040734646654704  0.2786350641019760
  0.9892441425364832  0.0320008908070019  0.4481693803882454
  0.9876076321130653  0.0280985642794869  0.9463988783009399
  0.4819497129865329  0.5265733596417790  0.5134941914361456
  0.4824696596810239  0.5309788664857723  0.0147177096155468
 
  0.00000000E+00  0.00000000E+00  0.00000000E+00
  0.00000000E+00  0.00000000E+00  0.00000000E+00
  0.00000000E+00  0.00000000E+00  0.00000000E+00
  0.00000000E+00  0.00000000E+00  0.00000000E+00
  0.00000000E+00  0.00000000E+00  0.00000000E+00
  0.00000000E+00  0.00000000E+00  0.00000000E+00
  0.00000000E+00  0.00000000E+00  0.00000000E+00
  0.00000000E+00  0.00000000E+00  0.00000000E+00
  0.00000000E+00  0.00000000E+00  0.00000000E+00
  0.00000000E+00  0.00000000E+00  0.00000000E+00
  0.00000000E+00  0.00000000E+00  0.00000000E+00
  0.00000000E+00  0.00000000E+00  0.00000000E+00
  0.00000000E+00  0.00000000E+00  0.00000000E+00
  0.00000000E+00  0.00000000E+00  0.00000000E+00
  0.00000000E+00  0.00000000E+00  0.00000000E+00
  0.00000000E+00  0.00000000E+00  0.00000000E+00
  0.00000000E+00  0.00000000E+00  0.00000000E+00
  0.00000000E+00  0.00000000E+00  0.00000000E+00
  0.00000000E+00  0.00000000E+00  0.00000000E+00
  0.00000000E+00  0.00000000E+00  0.00000000E+00
