Poscar file generated with pyiron       
   1.00000000000000     
     8.2879231883570803   -0.1821873418990749    1.2101392738398256
     0.2239259911860699   14.5266200914023358    0.4785087939037282
     0.1399227038326302   -0.1864187334715568    7.8873290670473750
   Cs   I    Pb
     4    12     4
Direct
  0.4913678266469522  0.1904310297679876  0.2325426330241432
  0.9785080317974493  0.3657072828373839  0.7964041870547905
  0.9736304029781682  0.7036202776496686  0.2876320461469860
  0.4904003264861359  0.8551737068888544  0.7381262921975499
  0.2384285098290683  0.1317755143286760  0.6755393199585514
  0.2334988350436870  0.4224040428011897  0.3543545037983718
  0.7050120717276444  0.1014228483480645  0.7661972975724222
  0.7658759532385052  0.4571873057740298  0.2626128149339051
  0.4944928031106892  0.3522130672436581  0.8239983416689495
  0.9758902960911230  0.2046694160646778  0.2054238618156222
  0.7435445873977075  0.6218005439852599  0.7603189159043278
  0.7227557116739540  0.9367292177181631  0.2701559148689210
  0.2078422436839692  0.6083326174100122  0.8582722148856399
  0.2593782006784293  0.9469639936163775  0.1712466425165802
  0.0145356072293173  0.8537484236378678  0.7053396412432745
  0.4500938762215757  0.7028415006169015  0.3250356291637858
  0.9872075148847471  0.0314550823884884  0.4704365545770094
  0.9862555657594849  0.0274932629734376  0.9687190982139577
  0.4819174607617797  0.5253295681165697  0.5591657795014101
  0.4820548067209556  0.5292951333281665  0.0610563412475276
 
  0.00000000E+00  0.00000000E+00  0.00000000E+00
  0.00000000E+00  0.00000000E+00  0.00000000E+00
  0.00000000E+00  0.00000000E+00  0.00000000E+00
  0.00000000E+00  0.00000000E+00  0.00000000E+00
  0.00000000E+00  0.00000000E+00  0.00000000E+00
  0.00000000E+00  0.00000000E+00  0.00000000E+00
  0.00000000E+00  0.00000000E+00  0.00000000E+00
  0.00000000E+00  0.00000000E+00  0.00000000E+00
  0.00000000E+00  0.00000000E+00  0.00000000E+00
  0.00000000E+00  0.00000000E+00  0.00000000E+00
  0.00000000E+00  0.00000000E+00  0.00000000E+00
  0.00000000E+00  0.00000000E+00  0.00000000E+00
  0.00000000E+00  0.00000000E+00  0.00000000E+00
  0.00000000E+00  0.00000000E+00  0.00000000E+00
  0.00000000E+00  0.00000000E+00  0.00000000E+00
  0.00000000E+00  0.00000000E+00  0.00000000E+00
  0.00000000E+00  0.00000000E+00  0.00000000E+00
  0.00000000E+00  0.00000000E+00  0.00000000E+00
  0.00000000E+00  0.00000000E+00  0.00000000E+00
  0.00000000E+00  0.00000000E+00  0.00000000E+00
