Poscar file generated with pyiron       
   1.00000000000000     
     8.4739844641154853    0.0129552989140020   -0.1655276014908449
    -0.0658437780309228   13.9541371206416667    0.1777375243267121
     0.1664601086692521   -0.1000624126721918    7.9838844295845428
   Cs   I    Pb
     4    12     4
Direct
  0.4930843331629790  0.1473210228133213  0.2611794451262943
  0.9855843594209566  0.3288848095113118  0.7736395629868724
  0.9925999029278578  0.6477664859999394  0.2738792508382075
  0.4856148179154230  0.8290989759577768  0.7611165259749681
  0.2421439207134721  0.0866244131087082  0.6708842258268229
  0.2372873592668149  0.3889694704379087  0.3652665823772066
  0.7256893538295603  0.0756925425565267  0.6711748977551719
  0.7535175727871450  0.4017759182015680  0.3641928379736719
  0.5011426411992685  0.3069637723125424  0.8692678623934280
  0.9770333234711808  0.1696356564630737  0.1664914632093921
  0.7429850381331282  0.5866444478260229  0.8644328726396320
  0.7350339705284458  0.8899433240221973  0.1717094829051727
  0.2266192765241171  0.5755634441889006  0.8649193962227195
  0.2515291154282462  0.9010233614725578  0.1702954562107583
  0.0003717858328538  0.8069991748289318  0.6666226998806122
  0.4757703052506899  0.6695481820276341  0.3692688739053077
  0.9891154235518321  0.9889066476727220  0.4302907678070161
  0.9880689322818542  0.9877409118920287  0.9302931919698928
  0.4893337192411589  0.4876174965897282  0.6055470779157949
  0.4899450178578897  0.4889050055812253  0.1055736779665377
 
  0.00000000E+00  0.00000000E+00  0.00000000E+00
  0.00000000E+00  0.00000000E+00  0.00000000E+00
  0.00000000E+00  0.00000000E+00  0.00000000E+00
  0.00000000E+00  0.00000000E+00  0.00000000E+00
  0.00000000E+00  0.00000000E+00  0.00000000E+00
  0.00000000E+00  0.00000000E+00  0.00000000E+00
  0.00000000E+00  0.00000000E+00  0.00000000E+00
  0.00000000E+00  0.00000000E+00  0.00000000E+00
  0.00000000E+00  0.00000000E+00  0.00000000E+00
  0.00000000E+00  0.00000000E+00  0.00000000E+00
  0.00000000E+00  0.00000000E+00  0.00000000E+00
  0.00000000E+00  0.00000000E+00  0.00000000E+00
  0.00000000E+00  0.00000000E+00  0.00000000E+00
  0.00000000E+00  0.00000000E+00  0.00000000E+00
  0.00000000E+00  0.00000000E+00  0.00000000E+00
  0.00000000E+00  0.00000000E+00  0.00000000E+00
  0.00000000E+00  0.00000000E+00  0.00000000E+00
  0.00000000E+00  0.00000000E+00  0.00000000E+00
  0.00000000E+00  0.00000000E+00  0.00000000E+00
  0.00000000E+00  0.00000000E+00  0.00000000E+00
