Poscar file generated with pyiron       
   1.00000000000000     
     8.3196323146143740    0.0918877882952868    1.0670410819483289
    -0.1227506667634545   14.5489792639565270   -0.4881306134532418
     0.3076791894039286    0.3018701567850202    7.8556319703930129
   Cs   I    Pb
     4    12     4
Direct
  0.4777776002614580  0.1853497445464002  0.2198093460720364
  0.9669875630846845  0.3520183528069292  0.7805218267423394
  0.9643177230307074  0.6914899537555722  0.2740433061924844
  0.4795363315028266  0.8459075720894530  0.7248004289560722
  0.2278507392505292  0.1222547543522116  0.6656371367656085
  0.2159937129437566  0.4154364628048955  0.3344120405207821
  0.6940195793510072  0.0896305048110574  0.7606585565167490
  0.7498951928217569  0.4475235796760754  0.2392629837884082
  0.4862063925804594  0.3430663181719398  0.7993255791531771
  0.9584763110080302  0.1943229783465341  0.2004774764110751
  0.7267931926815799  0.6141356295709588  0.7398741760690998
  0.7171893303231104  0.9234858055010606  0.2599853465479011
  0.1895971171522067  0.5952593219505252  0.8390371888517626
  0.2544528777919436  0.9419956474498499  0.1607150939528415
  0.0081180588120933  0.8438048582883411  0.6949272072702538
  0.4363371267757188  0.6935929348895864  0.3047862610417683
  0.9773060934125264  0.0209455942117548  0.4613882803805273
  0.9768793660820655  0.0173165730751462  0.9601804903847154
  0.4668796131601875  0.5165177300075419  0.5385215600800148
  0.4672895586488441  0.5200260320934488  0.0396302870150392
 
  0.00000000E+00  0.00000000E+00  0.00000000E+00
  0.00000000E+00  0.00000000E+00  0.00000000E+00
  0.00000000E+00  0.00000000E+00  0.00000000E+00
  0.00000000E+00  0.00000000E+00  0.00000000E+00
  0.00000000E+00  0.00000000E+00  0.00000000E+00
  0.00000000E+00  0.00000000E+00  0.00000000E+00
  0.00000000E+00  0.00000000E+00  0.00000000E+00
  0.00000000E+00  0.00000000E+00  0.00000000E+00
  0.00000000E+00  0.00000000E+00  0.00000000E+00
  0.00000000E+00  0.00000000E+00  0.00000000E+00
  0.00000000E+00  0.00000000E+00  0.00000000E+00
  0.00000000E+00  0.00000000E+00  0.00000000E+00
  0.00000000E+00  0.00000000E+00  0.00000000E+00
  0.00000000E+00  0.00000000E+00  0.00000000E+00
  0.00000000E+00  0.00000000E+00  0.00000000E+00
  0.00000000E+00  0.00000000E+00  0.00000000E+00
  0.00000000E+00  0.00000000E+00  0.00000000E+00
  0.00000000E+00  0.00000000E+00  0.00000000E+00
  0.00000000E+00  0.00000000E+00  0.00000000E+00
  0.00000000E+00  0.00000000E+00  0.00000000E+00
