Poscar file generated with pyiron       
   1.00000000000000     
     8.2746279999999999    0.0668540000000000    1.3527700000000000
    -0.1385790000000000   14.5122990000000005    0.0772310000000000
     0.0155340000000000    0.0020010000000000    7.8911790000000002
   Cs   I    Pb
     4    12     4
Direct
  0.4888837219425639  0.1876635141643774  0.2074530728029274
  0.9749886334253191  0.3580750284778702  0.7710066907833308
  0.9706366768245616  0.6950598078143955  0.2664590036285333
  0.4888885919337369  0.8526197897354280  0.7105008798988308
  0.2405164562231974  0.1244473960590113  0.6514303118980749
  0.2252895894494458  0.4198151410203508  0.3279996840268140
  0.7071635810673840  0.0974761970956592  0.7433215205779362
  0.7573816343753350  0.4499785054750376  0.2363930129785032
  0.4909114748961940  0.3473730649282700  0.7961447985587000
  0.9742908804869117  0.1990749676771841  0.1825529550121132
  0.7364596524065945  0.6175161290192648  0.7350498245397930
  0.7245221165300677  0.9304557584129824  0.2451391391143716
  0.2002371479234597  0.6020870141984886  0.8337540951069613
  0.2612649112654779  0.9427944877402936  0.1465465909207637
  0.0137112603299201  0.8479994875672716  0.6794333151770644
  0.4460322088364705  0.6982436543906658  0.3003637707487812
  0.9879029043874397  0.0256920225964237  0.4460923543760913
  0.9867270118331817  0.0215689184513295  0.9450104746620553
  0.4750817910473160  0.5208771200130329  0.5335259992084858
  0.4763410536069088  0.5246606941586833  0.0347265389448808
 
  0.00000000E+00  0.00000000E+00  0.00000000E+00
  0.00000000E+00  0.00000000E+00  0.00000000E+00
  0.00000000E+00  0.00000000E+00  0.00000000E+00
  0.00000000E+00  0.00000000E+00  0.00000000E+00
  0.00000000E+00  0.00000000E+00  0.00000000E+00
  0.00000000E+00  0.00000000E+00  0.00000000E+00
  0.00000000E+00  0.00000000E+00  0.00000000E+00
  0.00000000E+00  0.00000000E+00  0.00000000E+00
  0.00000000E+00  0.00000000E+00  0.00000000E+00
  0.00000000E+00  0.00000000E+00  0.00000000E+00
  0.00000000E+00  0.00000000E+00  0.00000000E+00
  0.00000000E+00  0.00000000E+00  0.00000000E+00
  0.00000000E+00  0.00000000E+00  0.00000000E+00
  0.00000000E+00  0.00000000E+00  0.00000000E+00
  0.00000000E+00  0.00000000E+00  0.00000000E+00
  0.00000000E+00  0.00000000E+00  0.00000000E+00
  0.00000000E+00  0.00000000E+00  0.00000000E+00
  0.00000000E+00  0.00000000E+00  0.00000000E+00
  0.00000000E+00  0.00000000E+00  0.00000000E+00
  0.00000000E+00  0.00000000E+00  0.00000000E+00
