Poscar file generated with pyiron       
   1.00000000000000     
     8.2510151515248538    0.1173395800557593    1.4148076615718137
     0.0623885620247867   14.6463533044140828   -1.1052228832051785
    -0.0189979773991912   -0.0160346775720654    7.8418142213008917
   Cs   I    Pb
     4    12     4
Direct
  0.4803361614889327  0.1847394845084704  0.2936530718397486
  0.9792472647776764  0.3267410661144894  0.7640243015041430
  0.9788761813313305  0.6672888009899378  0.3026480384706769
  0.4797788971719690  0.8438171766127497  0.7545270651839727
  0.2494445842767463  0.0804654861840690  0.7230425160202776
  0.2094049691604336  0.4306466513885425  0.3341344056472330
  0.7123768325848771  0.1022808509682026  0.8297049772316507
  0.7466771362069459  0.4093827791677123  0.2275616790504245
  0.4578373717364875  0.3322595062875500  0.7728068176676787
  0.0014349160344737  0.1790717502532851  0.2845082120734268
  0.7723256347357506  0.5727459605869186  0.7528649791411000
  0.6859632599734961  0.9388764182226557  0.3044996529816132
  0.2368973088928284  0.6140438010172911  0.8496027326031281
  0.2214037661600659  0.8969839832237335  0.2076044661574946
  0.9562980242670037  0.8295180530882743  0.7398818072707536
  0.5023288344672781  0.6818539423037898  0.3175256779775960
  0.9719620474761625  0.0042016514770826  0.5140731902517297
  0.9727535597436114  0.0034892012133925  0.0163793526361960
  0.4867217337113890  0.5070959536466099  0.5431785495662282
  0.4858837355143793  0.5078981114282176  0.0410026664310002
 
  0.00000000E+00  0.00000000E+00  0.00000000E+00
  0.00000000E+00  0.00000000E+00  0.00000000E+00
  0.00000000E+00  0.00000000E+00  0.00000000E+00
  0.00000000E+00  0.00000000E+00  0.00000000E+00
  0.00000000E+00  0.00000000E+00  0.00000000E+00
  0.00000000E+00  0.00000000E+00  0.00000000E+00
  0.00000000E+00  0.00000000E+00  0.00000000E+00
  0.00000000E+00  0.00000000E+00  0.00000000E+00
  0.00000000E+00  0.00000000E+00  0.00000000E+00
  0.00000000E+00  0.00000000E+00  0.00000000E+00
  0.00000000E+00  0.00000000E+00  0.00000000E+00
  0.00000000E+00  0.00000000E+00  0.00000000E+00
  0.00000000E+00  0.00000000E+00  0.00000000E+00
  0.00000000E+00  0.00000000E+00  0.00000000E+00
  0.00000000E+00  0.00000000E+00  0.00000000E+00
  0.00000000E+00  0.00000000E+00  0.00000000E+00
  0.00000000E+00  0.00000000E+00  0.00000000E+00
  0.00000000E+00  0.00000000E+00  0.00000000E+00
  0.00000000E+00  0.00000000E+00  0.00000000E+00
  0.00000000E+00  0.00000000E+00  0.00000000E+00
