Poscar file generated with pyiron       
   1.00000000000000     
     8.4608696549297981    0.2444478629644164    0.0805449866191054
    -0.3827889670953560   13.9020378550559371   -0.0178063910868205
     0.0068521771336489    0.0089837499023427    8.0142993887543756
   Cs   I    Pb
     4    12     4
Direct
  0.5007343794614159  0.1682383370576202  0.2534706404397609
  0.9888012248631162  0.3535263694225232  0.7701113402839388
  0.9869137993798623  0.6685283390192275  0.2696805702844661
  0.5022528187888368  0.8537906632678861  0.7537419403196239
  0.2579158034404477  0.1031239310485603  0.6580133677265975
  0.2312994279369591  0.4196024774708197  0.3657503660935933
  0.7419857135113240  0.1058320461013801  0.6642760227338970
  0.7471247113998616  0.4157334850244727  0.3602818797148112
  0.4872831142681140  0.3294640597062809  0.8664665436356938
  0.0023227251585139  0.1927304274926535  0.1576459798116954
  0.7495973598912808  0.6036446140633992  0.8602580172555354
  0.7402781260777289  0.9182876842355379  0.1635487089461411
  0.2339147795698758  0.6057831553088568  0.8659898116164835
  0.2561362596970496  0.9165120664913101  0.1583462932957977
  0.9974104267431699  0.8294911794694481  0.6577908986667352
  0.4936697670906738  0.6926581842429572  0.3665435409414766
  0.9995578717538984  0.0113587017692116  0.4210246126341079
  0.9998539269955732  0.0106761572623265  0.9210497366123014
  0.4899184965157203  0.5107318356428617  0.6032949424877742
  0.4900983783126649  0.5114320441772758  0.1032683317931203
 
  0.00000000E+00  0.00000000E+00  0.00000000E+00
  0.00000000E+00  0.00000000E+00  0.00000000E+00
  0.00000000E+00  0.00000000E+00  0.00000000E+00
  0.00000000E+00  0.00000000E+00  0.00000000E+00
  0.00000000E+00  0.00000000E+00  0.00000000E+00
  0.00000000E+00  0.00000000E+00  0.00000000E+00
  0.00000000E+00  0.00000000E+00  0.00000000E+00
  0.00000000E+00  0.00000000E+00  0.00000000E+00
  0.00000000E+00  0.00000000E+00  0.00000000E+00
  0.00000000E+00  0.00000000E+00  0.00000000E+00
  0.00000000E+00  0.00000000E+00  0.00000000E+00
  0.00000000E+00  0.00000000E+00  0.00000000E+00
  0.00000000E+00  0.00000000E+00  0.00000000E+00
  0.00000000E+00  0.00000000E+00  0.00000000E+00
  0.00000000E+00  0.00000000E+00  0.00000000E+00
  0.00000000E+00  0.00000000E+00  0.00000000E+00
  0.00000000E+00  0.00000000E+00  0.00000000E+00
  0.00000000E+00  0.00000000E+00  0.00000000E+00
  0.00000000E+00  0.00000000E+00  0.00000000E+00
  0.00000000E+00  0.00000000E+00  0.00000000E+00
