Poscar file generated with pyiron       
   1.00000000000000     
     8.2924543467209446    0.1483602531842740    1.1344382524937342
    -0.1764483976486655   14.5741899490788871   -0.5717250237127554
     0.1966907357444501    0.1889253654587507    7.8563469022248213
   Cs   I    Pb
     4    12     4
Direct
  0.4748024244791260  0.1928990216339934  0.2186854384258632
  0.9633998695972608  0.3377409276128999  0.7612602925357032
  0.9699424279051055  0.6744931051470459  0.2743806213169309
  0.4712186559938533  0.8572186120392608  0.7067929417699795
  0.2411633104604981  0.0956254578576449  0.6491418565906752
  0.1978367005889578  0.4362768478537998  0.3315883375859188
  0.7055419283797850  0.1089285210647948  0.7484329057233404
  0.7329558709269164  0.4219413830418256  0.2325761084396322
  0.4363880599534816  0.3422448826480194  0.7958883867599389
  0.0015795003961124  0.1892191283983337  0.1849951707133661
  0.7599954915355782  0.5826493354996897  0.7376608836157621
  0.6802925401776102  0.9480957092047323  0.2425961927285212
  0.2270535268959988  0.6249351038071347  0.8272981743624865
  0.2136902964389300  0.9076462665699806  0.1534369357774626
  0.9512022816252754  0.8393767803774731  0.6831416734215606
  0.4894601953477160  0.6920091469461802  0.2972545190099442
  0.9663667180132939  0.0158168639554368  0.4458500068565218
  0.9671123281025136  0.0121679809825633  0.9482412395737138
  0.4730743639381603  0.5157194730414948  0.5347594437821894
  0.4724191091969770  0.5191913959025387  0.0321703180630391
 
  0.00000000E+00  0.00000000E+00  0.00000000E+00
  0.00000000E+00  0.00000000E+00  0.00000000E+00
  0.00000000E+00  0.00000000E+00  0.00000000E+00
  0.00000000E+00  0.00000000E+00  0.00000000E+00
  0.00000000E+00  0.00000000E+00  0.00000000E+00
  0.00000000E+00  0.00000000E+00  0.00000000E+00
  0.00000000E+00  0.00000000E+00  0.00000000E+00
  0.00000000E+00  0.00000000E+00  0.00000000E+00
  0.00000000E+00  0.00000000E+00  0.00000000E+00
  0.00000000E+00  0.00000000E+00  0.00000000E+00
  0.00000000E+00  0.00000000E+00  0.00000000E+00
  0.00000000E+00  0.00000000E+00  0.00000000E+00
  0.00000000E+00  0.00000000E+00  0.00000000E+00
  0.00000000E+00  0.00000000E+00  0.00000000E+00
  0.00000000E+00  0.00000000E+00  0.00000000E+00
  0.00000000E+00  0.00000000E+00  0.00000000E+00
  0.00000000E+00  0.00000000E+00  0.00000000E+00
  0.00000000E+00  0.00000000E+00  0.00000000E+00
  0.00000000E+00  0.00000000E+00  0.00000000E+00
  0.00000000E+00  0.00000000E+00  0.00000000E+00
