Poscar file generated with pyiron       
   1.00000000000000     
     8.2989269153148157   -0.2016133855944181    1.1976500609858443
     0.3267291262516500   14.3683481845971208    0.2090969703875793
     0.0021321578209216   -0.1312880308173636    7.9110070654574951
   Cs   I    Pb
     4    12     4
Direct
  0.4917111674835897  0.1857724985794530  0.2279349774461166
  0.9568450527512223  0.3562723993340459  0.7901676813513034
  0.9487947447726607  0.6847295603354008  0.2801713799255618
  0.4872515152218280  0.8562798341827673  0.7209532116564413
  0.2497486351384075  0.1037036143944599  0.6533922512705357
  0.1991464654506139  0.4257233284694336  0.3572859427819480
  0.7186124323620053  0.1096780114593517  0.7345985596148832
  0.7306577001195080  0.4317762761687355  0.2704447436714432
  0.4499236797615452  0.3411458291838639  0.8294730025092893
  0.9994563886188714  0.1943372332254300  0.1782584983292014
  0.7276124125220308  0.6054085874262231  0.7752968124091159
  0.7079909367814591  0.9353587903477851  0.2372305674038221
  0.1978690113945940  0.6095417018536253  0.8542700745828273
  0.2374832068178376  0.9203631038207083  0.1525416824073204
  0.9832216460323728  0.8409358862627482  0.6794584570005292
  0.4507294597213425  0.6946631574933583  0.3309285815634221
  0.9831887681381284  0.0198116756081495  0.4448187387149041
  0.9816101348190952  0.0157712360996150  0.9450775878987222
  0.4608500792406919  0.5159519116816492  0.5640860520885342
  0.4583761956553021  0.5201257194632339  0.0641443335195810
 
  0.00000000E+00  0.00000000E+00  0.00000000E+00
  0.00000000E+00  0.00000000E+00  0.00000000E+00
  0.00000000E+00  0.00000000E+00  0.00000000E+00
  0.00000000E+00  0.00000000E+00  0.00000000E+00
  0.00000000E+00  0.00000000E+00  0.00000000E+00
  0.00000000E+00  0.00000000E+00  0.00000000E+00
  0.00000000E+00  0.00000000E+00  0.00000000E+00
  0.00000000E+00  0.00000000E+00  0.00000000E+00
  0.00000000E+00  0.00000000E+00  0.00000000E+00
  0.00000000E+00  0.00000000E+00  0.00000000E+00
  0.00000000E+00  0.00000000E+00  0.00000000E+00
  0.00000000E+00  0.00000000E+00  0.00000000E+00
  0.00000000E+00  0.00000000E+00  0.00000000E+00
  0.00000000E+00  0.00000000E+00  0.00000000E+00
  0.00000000E+00  0.00000000E+00  0.00000000E+00
  0.00000000E+00  0.00000000E+00  0.00000000E+00
  0.00000000E+00  0.00000000E+00  0.00000000E+00
  0.00000000E+00  0.00000000E+00  0.00000000E+00
  0.00000000E+00  0.00000000E+00  0.00000000E+00
  0.00000000E+00  0.00000000E+00  0.00000000E+00
