Poscar file generated with pyiron       
   1.00000000000000     
     8.4773779999999999    0.0539910000000000   -0.1070840000000000
    -0.1281210000000000   13.9372910000000001    0.1556570000000000
     0.1235640000000000   -0.0922910000000000    7.9861639999999996
   Cs   I    Pb
     4    12     4
Direct
  0.4876114289933611  0.1498172745151720  0.2597347412744213
  0.9789887713951586  0.3319197265417628  0.7739671830363761
  0.9847038838550901  0.6498429862522599  0.2726228675694742
  0.4812225689320826  0.8326702384774052  0.7606442505509463
  0.2373049198209998  0.0894217566895605  0.6686854741746231
  0.2284342832239616  0.3929821544460168  0.3658763700392740
  0.7209717124925774  0.0789717819936726  0.6702812033317329
  0.7449378078748694  0.4030172890807577  0.3640259709308467
  0.4937408388616760  0.3094287697672087  0.8689710395239985
  0.9735817215754778  0.1726551912652639  0.1654076447936319
  0.7355787765292447  0.5891194563668947  0.8641330932608895
  0.7299757462464314  0.8932556783617258  0.1700685548056100
  0.2192564218653388  0.5782496117185474  0.8656924523766065
  0.2461066835511119  0.9031770730590907  0.1682373656424545
  0.9948258017769405  0.8096655737913636  0.6645556846134539
  0.4715683210300270  0.6724513309114926  0.3693758334938266
  0.9840944730292449  0.9917920592067233  0.4287232760663571
  0.9836380279050516  0.9906643536750579  0.9285577361782842
  0.4820026797698631  0.4903948255008146  0.6056780220113396
  0.4822936848825350  0.4913608810353196  0.1058369418908214
 
  0.00000000E+00  0.00000000E+00  0.00000000E+00
  0.00000000E+00  0.00000000E+00  0.00000000E+00
  0.00000000E+00  0.00000000E+00  0.00000000E+00
  0.00000000E+00  0.00000000E+00  0.00000000E+00
  0.00000000E+00  0.00000000E+00  0.00000000E+00
  0.00000000E+00  0.00000000E+00  0.00000000E+00
  0.00000000E+00  0.00000000E+00  0.00000000E+00
  0.00000000E+00  0.00000000E+00  0.00000000E+00
  0.00000000E+00  0.00000000E+00  0.00000000E+00
  0.00000000E+00  0.00000000E+00  0.00000000E+00
  0.00000000E+00  0.00000000E+00  0.00000000E+00
  0.00000000E+00  0.00000000E+00  0.00000000E+00
  0.00000000E+00  0.00000000E+00  0.00000000E+00
  0.00000000E+00  0.00000000E+00  0.00000000E+00
  0.00000000E+00  0.00000000E+00  0.00000000E+00
  0.00000000E+00  0.00000000E+00  0.00000000E+00
  0.00000000E+00  0.00000000E+00  0.00000000E+00
  0.00000000E+00  0.00000000E+00  0.00000000E+00
  0.00000000E+00  0.00000000E+00  0.00000000E+00
  0.00000000E+00  0.00000000E+00  0.00000000E+00
