Poscar file generated with pyiron       
   1.00000000000000     
     8.4633312196011197    0.2908211348712346    0.2324225267634993
    -0.5022857978433393   13.9043099301109532   -0.0501954864943739
    -0.1721160022760269    0.0236840122353215    8.0056970122380751
   Cs   I    Pb
     4    12     4
Direct
  0.4886872796340388  0.1750619915721012  0.2570508196125360
  0.9766312443480182  0.3586340757071066  0.7710906556444875
  0.9799027612513492  0.6749662107225861  0.2711076414975748
  0.4842921342718388  0.8591995393317985  0.7562234020391001
  0.2407228611772625  0.1126533979951271  0.6628223633095780
  0.2244449806801675  0.4203430575329744  0.3654173624731096
  0.7251750808153542  0.1076960030798858  0.6659422813411739
  0.7401719071843225  0.4264199888148951  0.3617569884834677
  0.4867960242205835  0.3350530942388150  0.8679860899357829
  0.9792735013863620  0.1984750481436086  0.1599711776133035
  0.7341909534804428  0.6136810476685970  0.8621716928512629
  0.7293596362593132  0.9205757833573692  0.1660943096031880
  0.2182619541108788  0.6062405078565755  0.8650459712831385
  0.2454996963341533  0.9265789117874887  0.1626808392763544
  0.9911280956726499  0.8351194488359143  0.6599757967568655
  0.4725258837166408  0.6983896143835561  0.3679539307942049
  0.9856890978086751  0.0173455120354956  0.4236543013444762
  0.9852404926058937  0.0161890254762314  0.9237617117561554
  0.4790752083859078  0.5161779045537706  0.6042255487865777
  0.4791081331345156  0.5173148621836892  0.1042160190009583
 
  0.00000000E+00  0.00000000E+00  0.00000000E+00
  0.00000000E+00  0.00000000E+00  0.00000000E+00
  0.00000000E+00  0.00000000E+00  0.00000000E+00
  0.00000000E+00  0.00000000E+00  0.00000000E+00
  0.00000000E+00  0.00000000E+00  0.00000000E+00
  0.00000000E+00  0.00000000E+00  0.00000000E+00
  0.00000000E+00  0.00000000E+00  0.00000000E+00
  0.00000000E+00  0.00000000E+00  0.00000000E+00
  0.00000000E+00  0.00000000E+00  0.00000000E+00
  0.00000000E+00  0.00000000E+00  0.00000000E+00
  0.00000000E+00  0.00000000E+00  0.00000000E+00
  0.00000000E+00  0.00000000E+00  0.00000000E+00
  0.00000000E+00  0.00000000E+00  0.00000000E+00
  0.00000000E+00  0.00000000E+00  0.00000000E+00
  0.00000000E+00  0.00000000E+00  0.00000000E+00
  0.00000000E+00  0.00000000E+00  0.00000000E+00
  0.00000000E+00  0.00000000E+00  0.00000000E+00
  0.00000000E+00  0.00000000E+00  0.00000000E+00
  0.00000000E+00  0.00000000E+00  0.00000000E+00
  0.00000000E+00  0.00000000E+00  0.00000000E+00
