Poscar file generated with pyiron       
   1.00000000000000     
     8.4561630568115209    0.1513720955397388    0.3743346396183750
    -0.2514475697515690   13.9543333678438177    0.0528579487592183
    -0.2754571681524437   -0.0293358773472688    7.9839704154525943
   Cs   I    Pb
     4    12     4
Direct
  0.4785689097431270  0.1700804381842786  0.2809696907671346
  0.9634318390941525  0.3529649739800906  0.7956175391048054
  0.9659428367951464  0.6702651472663597  0.2968030396886265
  0.4782656554979874  0.8528438832690338  0.7812455321512197
  0.2335975336499882  0.1050840727881138  0.6888684832544154
  0.2095588765701654  0.4178580342007955  0.3887392387362215
  0.7166361955431341  0.1040465097179140  0.6934374107244450
  0.7262197056594925  0.4195273896267375  0.3830884374790333
  0.4694619681856868  0.3302213069612827  0.8902057261815995
  0.9736310001449912  0.1931745155007217  0.1869081199106005
  0.7242845037986890  0.6060764866450560  0.8831935664817886
  0.7187288060367362  0.9170368248165812  0.1945125691281963
  0.2069285125296492  0.6026156737129865  0.8886399474670298
  0.2355953396122301  0.9205453468418643  0.1879978259289009
  0.9783476073168612  0.8303245787107713  0.6872200616078818
  0.4637430263821888  0.6931075638265999  0.3901206171129208
  0.9767126554471264  0.0122110999291030  0.4505856667763273
  0.9760962322373758  0.0112749358051149  0.9505904043091666
  0.4662211835092869  0.5111875389900566  0.6265792509965181
  0.4663897789705603  0.5121089083422207  0.1265674695184003
 
  0.00000000E+00  0.00000000E+00  0.00000000E+00
  0.00000000E+00  0.00000000E+00  0.00000000E+00
  0.00000000E+00  0.00000000E+00  0.00000000E+00
  0.00000000E+00  0.00000000E+00  0.00000000E+00
  0.00000000E+00  0.00000000E+00  0.00000000E+00
  0.00000000E+00  0.00000000E+00  0.00000000E+00
  0.00000000E+00  0.00000000E+00  0.00000000E+00
  0.00000000E+00  0.00000000E+00  0.00000000E+00
  0.00000000E+00  0.00000000E+00  0.00000000E+00
  0.00000000E+00  0.00000000E+00  0.00000000E+00
  0.00000000E+00  0.00000000E+00  0.00000000E+00
  0.00000000E+00  0.00000000E+00  0.00000000E+00
  0.00000000E+00  0.00000000E+00  0.00000000E+00
  0.00000000E+00  0.00000000E+00  0.00000000E+00
  0.00000000E+00  0.00000000E+00  0.00000000E+00
  0.00000000E+00  0.00000000E+00  0.00000000E+00
  0.00000000E+00  0.00000000E+00  0.00000000E+00
  0.00000000E+00  0.00000000E+00  0.00000000E+00
  0.00000000E+00  0.00000000E+00  0.00000000E+00
  0.00000000E+00  0.00000000E+00  0.00000000E+00
