Poscar file generated with pyiron       
   1.00000000000000     
     8.4680956654402504    0.1788038493391536    0.2821863841394071
    -0.3182953439515332   13.9296891269631402   -0.1673972026962022
    -0.1801820945147888    0.0896993797190458    7.9900897479838928
   Cs   I    Pb
     4    12     4
Direct
  0.4942607845204550  0.1753897830601441  0.2656848418128909
  0.9720102981793469  0.3568562007939169  0.7778287868617132
  0.9781646681717486  0.6738110064801593  0.2800956817776197
  0.4875235898890969  0.8581032547199907  0.7637695944888564
  0.2415432919293043  0.1144064252206925  0.6700983985444890
  0.2243599055073735  0.4183773307804851  0.3729312845011851
  0.7257828102657918  0.1046781496157456  0.6761522161343303
  0.7398908183560903  0.4274699811389099  0.3676939905779539
  0.4894668911917136  0.3347942742538767  0.8748040506899929
  0.9770345888399574  0.1977710079075870  0.1687022055631985
  0.7311291064463830  0.6148205727687431  0.8672842445952239
  0.7349787643458928  0.9177330332135609  0.1759448988195303
  0.2139487609043451  0.6027606244701360  0.8738363732248198
  0.2519252558273770  0.9296036406056329  0.1701751756902892
  0.0004282397874629  0.8347464273114963  0.6685883447828066
  0.4663849053705594  0.6977755301900338  0.3748419853379127
  0.9892922966954008  0.0167983184290267  0.4321374066417047
  0.9888290601231653  0.0156828364610582  0.9322375287076238
  0.4766451740125190  0.5157362005014335  0.6114891522935225
  0.4773888094713459  0.5168458242225399  0.1113572982276833
 
  0.00000000E+00  0.00000000E+00  0.00000000E+00
  0.00000000E+00  0.00000000E+00  0.00000000E+00
  0.00000000E+00  0.00000000E+00  0.00000000E+00
  0.00000000E+00  0.00000000E+00  0.00000000E+00
  0.00000000E+00  0.00000000E+00  0.00000000E+00
  0.00000000E+00  0.00000000E+00  0.00000000E+00
  0.00000000E+00  0.00000000E+00  0.00000000E+00
  0.00000000E+00  0.00000000E+00  0.00000000E+00
  0.00000000E+00  0.00000000E+00  0.00000000E+00
  0.00000000E+00  0.00000000E+00  0.00000000E+00
  0.00000000E+00  0.00000000E+00  0.00000000E+00
  0.00000000E+00  0.00000000E+00  0.00000000E+00
  0.00000000E+00  0.00000000E+00  0.00000000E+00
  0.00000000E+00  0.00000000E+00  0.00000000E+00
  0.00000000E+00  0.00000000E+00  0.00000000E+00
  0.00000000E+00  0.00000000E+00  0.00000000E+00
  0.00000000E+00  0.00000000E+00  0.00000000E+00
  0.00000000E+00  0.00000000E+00  0.00000000E+00
  0.00000000E+00  0.00000000E+00  0.00000000E+00
  0.00000000E+00  0.00000000E+00  0.00000000E+00
