Poscar file generated with pyiron       
   1.00000000000000     
     8.2942929409667645    0.2079165377452731    1.0782988222602585
    -0.2685194908507160   14.5696082561556679   -0.5776721965559941
     0.2750536772499932    0.2259674887776161    7.8630259476619733
   Cs   I    Pb
     4    12     4
Direct
  0.4749340697384464  0.1954669523465397  0.2138845390768067
  0.9611649006897289  0.3406428905312751  0.7566695052123340
  0.9662004488930298  0.6784821072727227  0.2683885737930202
  0.4693227103986956  0.8573784269415303  0.7003458843799329
  0.2414336108082902  0.0973794841628041  0.6423743484094011
  0.1943331029581096  0.4384287415997329  0.3261559051041042
  0.7049594947235224  0.1114255241921576  0.7427078932524299
  0.7310540303184671  0.4247111033206318  0.2258772231658846
  0.4350261614633312  0.3441432453601010  0.7910275145621976
  0.0014396639677770  0.1916540027038856  0.1776934802894148
  0.7556255612106980  0.5860073058355166  0.7294121366954459
  0.6797358414872040  0.9503763007752386  0.2392778158822625
  0.2215097350674785  0.6253356184700187  0.8215391494985984
  0.2140248636796600  0.9104469587480084  0.1472792183498500
  0.9501998519935637  0.8418808499965222  0.6790547962997617
  0.4853303559538430  0.6940711769842393  0.2902133079107949
  0.9661758682405983  0.0183862869687136  0.4404670428232975
  0.9665320735577928  0.0146962406637342  0.9427336416083680
  0.4695143728549683  0.5174511809216481  0.5281803840355841
  0.4691680029896350  0.5212626835605841  0.0258063545363734
 
  0.00000000E+00  0.00000000E+00  0.00000000E+00
  0.00000000E+00  0.00000000E+00  0.00000000E+00
  0.00000000E+00  0.00000000E+00  0.00000000E+00
  0.00000000E+00  0.00000000E+00  0.00000000E+00
  0.00000000E+00  0.00000000E+00  0.00000000E+00
  0.00000000E+00  0.00000000E+00  0.00000000E+00
  0.00000000E+00  0.00000000E+00  0.00000000E+00
  0.00000000E+00  0.00000000E+00  0.00000000E+00
  0.00000000E+00  0.00000000E+00  0.00000000E+00
  0.00000000E+00  0.00000000E+00  0.00000000E+00
  0.00000000E+00  0.00000000E+00  0.00000000E+00
  0.00000000E+00  0.00000000E+00  0.00000000E+00
  0.00000000E+00  0.00000000E+00  0.00000000E+00
  0.00000000E+00  0.00000000E+00  0.00000000E+00
  0.00000000E+00  0.00000000E+00  0.00000000E+00
  0.00000000E+00  0.00000000E+00  0.00000000E+00
  0.00000000E+00  0.00000000E+00  0.00000000E+00
  0.00000000E+00  0.00000000E+00  0.00000000E+00
  0.00000000E+00  0.00000000E+00  0.00000000E+00
  0.00000000E+00  0.00000000E+00  0.00000000E+00
