Poscar file generated with pyiron       
   1.00000000000000     
     8.2632864231591707    0.0445691290458989    1.3296245049304158
    -0.1675765475661013   14.5573183274818767    0.3092438370074812
     0.1274497727205616   -0.1028735987241637    7.8849099146206774
   Cs   I    Pb
     4    12     4
Direct
  0.4906338305342542  0.1963569122978792  0.2084770548458299
  0.9798979494386826  0.3586649710152289  0.7645960813798472
  0.9795056757921387  0.7018896439185183  0.2590060329512629
  0.4914123832448698  0.8529041802534139  0.7155136026655008
  0.2456133698447265  0.1276092800147982  0.6537361759350855
  0.2249188921132210  0.4275642913490100  0.3197434003598340
  0.7087376185479519  0.1009736816067321  0.7543728021107123
  0.7618101389007483  0.4537893733490344  0.2192879861514494
  0.4927085978142683  0.3516708266034979  0.7840240240636176
  0.9781214646335357  0.2032552572406081  0.1891336000539858
  0.7450018808673670  0.6190721645171547  0.7178283819404929
  0.7257803651360267  0.9358248523380193  0.2557725847648238
  0.2055801052999714  0.6068429831200054  0.8224875086271352
  0.2650565297591705  0.9479935115355436  0.1512821087840173
  0.0140910400634493  0.8524760949630441  0.6882681465097996
  0.4570784134330820  0.7024497820139614  0.2849896156821020
  0.9900243009665346  0.0298986350727498  0.4530785100148078
  0.9896945052696561  0.0260820878070613  0.9519588468186212
  0.4805480528517079  0.5250791724195520  0.5205267324198380
  0.4809934540296291  0.5287734019065968  0.0216383950642981
 
  0.00000000E+00  0.00000000E+00  0.00000000E+00
  0.00000000E+00  0.00000000E+00  0.00000000E+00
  0.00000000E+00  0.00000000E+00  0.00000000E+00
  0.00000000E+00  0.00000000E+00  0.00000000E+00
  0.00000000E+00  0.00000000E+00  0.00000000E+00
  0.00000000E+00  0.00000000E+00  0.00000000E+00
  0.00000000E+00  0.00000000E+00  0.00000000E+00
  0.00000000E+00  0.00000000E+00  0.00000000E+00
  0.00000000E+00  0.00000000E+00  0.00000000E+00
  0.00000000E+00  0.00000000E+00  0.00000000E+00
  0.00000000E+00  0.00000000E+00  0.00000000E+00
  0.00000000E+00  0.00000000E+00  0.00000000E+00
  0.00000000E+00  0.00000000E+00  0.00000000E+00
  0.00000000E+00  0.00000000E+00  0.00000000E+00
  0.00000000E+00  0.00000000E+00  0.00000000E+00
  0.00000000E+00  0.00000000E+00  0.00000000E+00
  0.00000000E+00  0.00000000E+00  0.00000000E+00
  0.00000000E+00  0.00000000E+00  0.00000000E+00
  0.00000000E+00  0.00000000E+00  0.00000000E+00
  0.00000000E+00  0.00000000E+00  0.00000000E+00
