Poscar file generated with pyiron       
   1.00000000000000     
     8.3004146574488153   -0.2142069706561009    1.2197274687419819
     0.3246121480058825   14.3913958130507798    0.3296235229628655
     0.0192238840100794   -0.1593912731339312    7.9149975325263888
   Cs   I    Pb
     4    12     4
Direct
  0.4858218016928189  0.1888281570341034  0.2330871573775822
  0.9515340299690376  0.3621136694833958  0.7963026926933170
  0.9504022939044835  0.6912217366742182  0.2957032051422898
  0.4819985497274299  0.8613168491651731  0.7293941274706331
  0.2363011610507487  0.1217842969608575  0.6657759897078447
  0.2026253771657587  0.4259728790552529  0.3634979751134932
  0.7068768750352116  0.1079657050593999  0.7490005199368850
  0.7312900107223337  0.4441357860545016  0.2788148101176102
  0.4604845668029217  0.3485274441527577  0.8361431357517196
  0.9777856478499288  0.2018391119456615  0.1922616524406616
  0.7189939456827251  0.6179784615628852  0.7786491931584650
  0.7142722631220834  0.9344042596314593  0.2516509712624359
  0.1864313377124923  0.6086798523301989  0.8655375521889490
  0.2474404431579600  0.9396485519815014  0.1631653670881082
  0.9975219308683176  0.8487968646733038  0.6910856872466858
  0.4352855388023060  0.7014169425990571  0.3379453034190729
  0.9804745884485311  0.0274249809423553  0.4575825290620498
  0.9791213278422242  0.0233596857570910  0.9571527681652356
  0.4560498704541738  0.5229180533756358  0.5712772641569223
  0.4560658528579330  0.5268682755238125  0.0718443902151827
 
  0.00000000E+00  0.00000000E+00  0.00000000E+00
  0.00000000E+00  0.00000000E+00  0.00000000E+00
  0.00000000E+00  0.00000000E+00  0.00000000E+00
  0.00000000E+00  0.00000000E+00  0.00000000E+00
  0.00000000E+00  0.00000000E+00  0.00000000E+00
  0.00000000E+00  0.00000000E+00  0.00000000E+00
  0.00000000E+00  0.00000000E+00  0.00000000E+00
  0.00000000E+00  0.00000000E+00  0.00000000E+00
  0.00000000E+00  0.00000000E+00  0.00000000E+00
  0.00000000E+00  0.00000000E+00  0.00000000E+00
  0.00000000E+00  0.00000000E+00  0.00000000E+00
  0.00000000E+00  0.00000000E+00  0.00000000E+00
  0.00000000E+00  0.00000000E+00  0.00000000E+00
  0.00000000E+00  0.00000000E+00  0.00000000E+00
  0.00000000E+00  0.00000000E+00  0.00000000E+00
  0.00000000E+00  0.00000000E+00  0.00000000E+00
  0.00000000E+00  0.00000000E+00  0.00000000E+00
  0.00000000E+00  0.00000000E+00  0.00000000E+00
  0.00000000E+00  0.00000000E+00  0.00000000E+00
  0.00000000E+00  0.00000000E+00  0.00000000E+00
