Poscar file generated with pyiron       
   1.00000000000000     
     8.4623554582688936    0.1603853378856080    0.4099381517946181
    -0.3087726677022871   13.9082942696344158    0.0157187841797969
    -0.3387963996750485   -0.0150918090534290    7.9969701626734038
   Cs   I    Pb
     4    12     4
Direct
  0.4779020338158638  0.1787220927506003  0.2704515022787503
  0.9635559184544957  0.3624808468706647  0.7847035265448470
  0.9710260494100728  0.6786939097799128  0.2852850604342722
  0.4729038194212013  0.8624142444648062  0.7706265937720868
  0.2272458586739697  0.1193281408404484  0.6766183597977777
  0.2153434264135070  0.4225983264285924  0.3790426446249123
  0.7118893302781139  0.1095357767265405  0.6792908361898020
  0.7307393211898692  0.4316581790769506  0.3759613148430161
  0.4791287603472139  0.3390473345122892  0.8818137996095777
  0.9633933301032390  0.2024170375077442  0.1737275887000528
  0.7228059658332978  0.6189432572014283  0.8757918290727255
  0.7203646658035435  0.9222922471481251  0.1798737165266639
  0.2066886992587217  0.6088565042676264  0.8790946505345724
  0.2363007648909538  0.9326249145789600  0.1760732346638678
  0.9848381404127035  0.8391305792234489  0.6740734527486320
  0.4580729566224256  0.7023439134235415  0.3817277044194348
  0.9748609155121866  0.0213828436112786  0.4374539595492331
  0.9740802914671362  0.0203007579818928  0.9372270715044508
  0.4679516000998492  0.5200593357936160  0.6181844784444511
  0.4688430376242029  0.5212780940732241  0.1184225159592685
 
  0.00000000E+00  0.00000000E+00  0.00000000E+00
  0.00000000E+00  0.00000000E+00  0.00000000E+00
  0.00000000E+00  0.00000000E+00  0.00000000E+00
  0.00000000E+00  0.00000000E+00  0.00000000E+00
  0.00000000E+00  0.00000000E+00  0.00000000E+00
  0.00000000E+00  0.00000000E+00  0.00000000E+00
  0.00000000E+00  0.00000000E+00  0.00000000E+00
  0.00000000E+00  0.00000000E+00  0.00000000E+00
  0.00000000E+00  0.00000000E+00  0.00000000E+00
  0.00000000E+00  0.00000000E+00  0.00000000E+00
  0.00000000E+00  0.00000000E+00  0.00000000E+00
  0.00000000E+00  0.00000000E+00  0.00000000E+00
  0.00000000E+00  0.00000000E+00  0.00000000E+00
  0.00000000E+00  0.00000000E+00  0.00000000E+00
  0.00000000E+00  0.00000000E+00  0.00000000E+00
  0.00000000E+00  0.00000000E+00  0.00000000E+00
  0.00000000E+00  0.00000000E+00  0.00000000E+00
  0.00000000E+00  0.00000000E+00  0.00000000E+00
  0.00000000E+00  0.00000000E+00  0.00000000E+00
  0.00000000E+00  0.00000000E+00  0.00000000E+00
