Poscar file generated with pyiron       
   1.00000000000000     
     8.4585737214070029    0.2568236405062005    0.1268637282073090
    -0.4409986064456666   13.8936460306028327   -0.0211963807009842
    -0.0683162054095315    0.0115813915479983    8.0170974167274860
   Cs   I    Pb
     4    12     4
Direct
  0.4979252166407734  0.1694605354621760  0.2543916002948235
  0.9878365692820185  0.3536257864553806  0.7700533795440192
  0.9890840966168362  0.6701041703498241  0.2695579809488659
  0.4958048971684377  0.8533589919715814  0.7560945999394483
  0.2518106229648192  0.1075220342908564  0.6594088989392137
  0.2331328401372973  0.4192156963608816  0.3642310867995459
  0.7357773522002707  0.1030242472359844  0.6649403535211449
  0.7492869779846667  0.4181874093799532  0.3609769237874926
  0.4936024167877671  0.3302200308555871  0.8672617938647968
  0.9959885187423414  0.1936267151892795  0.1584316325616848
  0.7486970514071907  0.6065838877580553  0.8604827705166094
  0.7383266998385974  0.9180556696567086  0.1628260993747552
  0.2325615889655460  0.6036336758672879  0.8645708191879716
  0.2540842042044910  0.9190638014175671  0.1616582065674663
  0.0015365418030241  0.8302129320634400  0.6583449054488842
  0.4932495771724225  0.6936227881196746  0.3672843368453572
  0.9957464448609445  0.0124689442952309  0.4218546561408777
  0.9969465772159523  0.0114127912897290  0.9217037352032016
  0.4912934202771915  0.5111113545993102  0.6032500669251503
  0.4912899518527453  0.5126808880928740  0.1034425578439001
 
  0.00000000E+00  0.00000000E+00  0.00000000E+00
  0.00000000E+00  0.00000000E+00  0.00000000E+00
  0.00000000E+00  0.00000000E+00  0.00000000E+00
  0.00000000E+00  0.00000000E+00  0.00000000E+00
  0.00000000E+00  0.00000000E+00  0.00000000E+00
  0.00000000E+00  0.00000000E+00  0.00000000E+00
  0.00000000E+00  0.00000000E+00  0.00000000E+00
  0.00000000E+00  0.00000000E+00  0.00000000E+00
  0.00000000E+00  0.00000000E+00  0.00000000E+00
  0.00000000E+00  0.00000000E+00  0.00000000E+00
  0.00000000E+00  0.00000000E+00  0.00000000E+00
  0.00000000E+00  0.00000000E+00  0.00000000E+00
  0.00000000E+00  0.00000000E+00  0.00000000E+00
  0.00000000E+00  0.00000000E+00  0.00000000E+00
  0.00000000E+00  0.00000000E+00  0.00000000E+00
  0.00000000E+00  0.00000000E+00  0.00000000E+00
  0.00000000E+00  0.00000000E+00  0.00000000E+00
  0.00000000E+00  0.00000000E+00  0.00000000E+00
  0.00000000E+00  0.00000000E+00  0.00000000E+00
  0.00000000E+00  0.00000000E+00  0.00000000E+00
