Poscar file generated with pyiron       
   1.00000000000000     
     8.2934250586238232    0.2095576339007287    1.1552475239708964
    -0.2563006409713572   14.5501095821813209   -0.5937012190450157
     0.1945251369945524    0.2407957401703724    7.8636935497988061
   Cs   I    Pb
     4    12     4
Direct
  0.4756362791648715  0.1920357234131770  0.2177025668718443
  0.9620077905289242  0.3405563828340510  0.7626503434927747
  0.9651322319772749  0.6784088741702318  0.2717510682777924
  0.4721088388306588  0.8541075514077161  0.7079745118901573
  0.2442757199789839  0.0956616640167286  0.6494133389769008
  0.1935279423410760  0.4368416146242055  0.3308930488949670
  0.7077347130973269  0.1095522860329467  0.7487743096829454
  0.7300903439236540  0.4228067541908749  0.2315640558070476
  0.4360847425923329  0.3419274645132013  0.7961174532481958
  0.0017424841935293  0.1904135128111372  0.1840563450299054
  0.7530310481205679  0.5858852351917696  0.7345199025885846
  0.6848218528210738  0.9464633103753272  0.2457387040722358
  0.2193658529499698  0.6220102748650036  0.8264514358758054
  0.2185044195505206  0.9104335030931201  0.1538697606795869
  0.9542473794697872  0.8400924295049500  0.6851799762463510
  0.4834793282378609  0.6923039998296822  0.2949721433132952
  0.9690733872389587  0.0169101074501336  0.4472479608086283
  0.9695447832952602  0.0131181645284979  0.9491315394824545
  0.4687251266961612  0.5155308974720806  0.5330233916702912
  0.4682749987873390  0.5192297897819904  0.0310696298601712
 
  0.00000000E+00  0.00000000E+00  0.00000000E+00
  0.00000000E+00  0.00000000E+00  0.00000000E+00
  0.00000000E+00  0.00000000E+00  0.00000000E+00
  0.00000000E+00  0.00000000E+00  0.00000000E+00
  0.00000000E+00  0.00000000E+00  0.00000000E+00
  0.00000000E+00  0.00000000E+00  0.00000000E+00
  0.00000000E+00  0.00000000E+00  0.00000000E+00
  0.00000000E+00  0.00000000E+00  0.00000000E+00
  0.00000000E+00  0.00000000E+00  0.00000000E+00
  0.00000000E+00  0.00000000E+00  0.00000000E+00
  0.00000000E+00  0.00000000E+00  0.00000000E+00
  0.00000000E+00  0.00000000E+00  0.00000000E+00
  0.00000000E+00  0.00000000E+00  0.00000000E+00
  0.00000000E+00  0.00000000E+00  0.00000000E+00
  0.00000000E+00  0.00000000E+00  0.00000000E+00
  0.00000000E+00  0.00000000E+00  0.00000000E+00
  0.00000000E+00  0.00000000E+00  0.00000000E+00
  0.00000000E+00  0.00000000E+00  0.00000000E+00
  0.00000000E+00  0.00000000E+00  0.00000000E+00
  0.00000000E+00  0.00000000E+00  0.00000000E+00
