Poscar file generated with pyiron       
   1.00000000000000     
     8.4672107232773595    0.1687911763258481    0.3144252668931471
    -0.3133839610767906   13.9038662593624487   -0.0326298512315052
    -0.2453656885793293    0.0157881956582492    8.0077203194767694
   Cs   I    Pb
     4    12     4
Direct
  0.4858599985816777  0.1799778492348396  0.2669882794971025
  0.9706933832502640  0.3633466465295174  0.7804876376840655
  0.9763492635581452  0.6786874174839034  0.2817245927577758
  0.4782396691948022  0.8630670384715938  0.7663902926606055
  0.2324220717653933  0.1203033308559438  0.6692559775529344
  0.2203118379811268  0.4244110576529633  0.3748494000421103
  0.7175791105774603  0.1094184841553941  0.6751222895733074
  0.7355133154397396  0.4314153374834293  0.3735238749777668
  0.4822884675308015  0.3396683232974945  0.8778486381680001
  0.9680515074572411  0.2030049456607193  0.1685015372458573
  0.7299536575397778  0.6183769093112854  0.8711323539846063
  0.7278918893737780  0.9220384537184250  0.1730733715357224
  0.2141189496094993  0.6107204536732903  0.8770933939399178
  0.2434902703576184  0.9344800247863312  0.1715788638643059
  0.9925233647674427  0.8396623842053472  0.6686011099972163
  0.4661045686954959  0.7031397504436264  0.3777175714198178
  0.9802463366099909  0.0217639925245127  0.4316609478843972
  0.9808274693922781  0.0208549396800448  0.9315147905847111
  0.4737345988384496  0.5209653863620252  0.6147464485006310
  0.4755187282645115  0.5218939445641716  0.1147053213484532
 
  0.00000000E+00  0.00000000E+00  0.00000000E+00
  0.00000000E+00  0.00000000E+00  0.00000000E+00
  0.00000000E+00  0.00000000E+00  0.00000000E+00
  0.00000000E+00  0.00000000E+00  0.00000000E+00
  0.00000000E+00  0.00000000E+00  0.00000000E+00
  0.00000000E+00  0.00000000E+00  0.00000000E+00
  0.00000000E+00  0.00000000E+00  0.00000000E+00
  0.00000000E+00  0.00000000E+00  0.00000000E+00
  0.00000000E+00  0.00000000E+00  0.00000000E+00
  0.00000000E+00  0.00000000E+00  0.00000000E+00
  0.00000000E+00  0.00000000E+00  0.00000000E+00
  0.00000000E+00  0.00000000E+00  0.00000000E+00
  0.00000000E+00  0.00000000E+00  0.00000000E+00
  0.00000000E+00  0.00000000E+00  0.00000000E+00
  0.00000000E+00  0.00000000E+00  0.00000000E+00
  0.00000000E+00  0.00000000E+00  0.00000000E+00
  0.00000000E+00  0.00000000E+00  0.00000000E+00
  0.00000000E+00  0.00000000E+00  0.00000000E+00
  0.00000000E+00  0.00000000E+00  0.00000000E+00
  0.00000000E+00  0.00000000E+00  0.00000000E+00
