Poscar file generated with pyiron       
   1.00000000000000     
     8.4553103529531590    0.1843457140836998    0.4157206679505829
    -0.3317497878059895   13.8946265174037702    0.1761438071769151
    -0.3516435822917834   -0.1143241529298086    8.0067294345733071
   Cs   I    Pb
     4    12     4
Direct
  0.4808852991541053  0.1714520727083700  0.2774856280900373
  0.9702877780376949  0.3543788403443915  0.7911958765970578
  0.9739164105697647  0.6707950907783620  0.2922892495434902
  0.4772833328792028  0.8554201974055274  0.7766207904039656
  0.2330736838948743  0.1091834802597093  0.6827885544445380
  0.2173376389063245  0.4175548118037993  0.3861851459286847
  0.7174776099129168  0.1041685477673047  0.6855244728333670
  0.7328789205495421  0.4223617043039040  0.3840494430670057
  0.4785895784003622  0.3313448805552039  0.8889365482933876
  0.9698927214457405  0.1950678488477485  0.1805191747986226
  0.7290807217570975  0.6090710961359613  0.8836847327896614
  0.7223045794005034  0.9166658079570327  0.1848206967931895
  0.2128024130587353  0.6038048918722227  0.8867767662016375
  0.2382437313161663  0.9233467821847992  0.1823041097500883
  0.9833319625522176  0.8315504406440639  0.6801524019427966
  0.4663883061133148  0.6948944794842531  0.3892219109845738
  0.9780598284049599  0.0136790284071815  0.4431938282574986
  0.9774643004148810  0.0128622614497848  0.9432802498513273
  0.4722358843141601  0.5126105601563103  0.6261445790630492
  0.4732316560984479  0.5138311745318797  0.1256985171105398
 
  0.00000000E+00  0.00000000E+00  0.00000000E+00
  0.00000000E+00  0.00000000E+00  0.00000000E+00
  0.00000000E+00  0.00000000E+00  0.00000000E+00
  0.00000000E+00  0.00000000E+00  0.00000000E+00
  0.00000000E+00  0.00000000E+00  0.00000000E+00
  0.00000000E+00  0.00000000E+00  0.00000000E+00
  0.00000000E+00  0.00000000E+00  0.00000000E+00
  0.00000000E+00  0.00000000E+00  0.00000000E+00
  0.00000000E+00  0.00000000E+00  0.00000000E+00
  0.00000000E+00  0.00000000E+00  0.00000000E+00
  0.00000000E+00  0.00000000E+00  0.00000000E+00
  0.00000000E+00  0.00000000E+00  0.00000000E+00
  0.00000000E+00  0.00000000E+00  0.00000000E+00
  0.00000000E+00  0.00000000E+00  0.00000000E+00
  0.00000000E+00  0.00000000E+00  0.00000000E+00
  0.00000000E+00  0.00000000E+00  0.00000000E+00
  0.00000000E+00  0.00000000E+00  0.00000000E+00
  0.00000000E+00  0.00000000E+00  0.00000000E+00
  0.00000000E+00  0.00000000E+00  0.00000000E+00
  0.00000000E+00  0.00000000E+00  0.00000000E+00
