Poscar file generated with pyiron       
   1.00000000000000     
     8.2677890000000005   -0.1654700000000000    1.2862050000000000
     0.1636150000000000   14.5647090000000006    0.5465130000000000
     0.1332180000000000   -0.2197450000000000    7.8744680000000002
   Cs   I    Pb
     4    12     4
Direct
  0.4936436285942207  0.1924450043840977  0.2286094948938739
  0.9873409537271058  0.3620907464273913  0.7884272867556419
  0.9845814475574599  0.7033755452828743  0.2798209820631925
  0.4965609747565480  0.8505857877182663  0.7380953887393602
  0.2437532845546215  0.1310705902622900  0.6750128417242038
  0.2365333660911233  0.4235404330005395  0.3411583882629969
  0.7079080300918292  0.0971460405894291  0.7725720444916533
  0.7719910122722382  0.4561617902270569  0.2456111772956859
  0.5034983832777726  0.3510829883758078  0.8076563523839653
  0.9777416489492694  0.2028379824069688  0.2080116592364760
  0.7523153433266074  0.6191968017853497  0.7419090308729395
  0.7293038288861240  0.9345216111854668  0.2743679898633076
  0.2136903082467398  0.6063500347478410  0.8461202710696156
  0.2676164723966821  0.9481672207236613  0.1710539980399233
  0.0217768819053106  0.8527465586767917  0.7067426611102832
  0.4601093686290625  0.7013850867651499  0.3087612879393191
  0.9921396872600852  0.0301115184387655  0.4724569320776766
  0.9919621330463428  0.0258929400216275  0.9707136057731560
  0.4882052950581581  0.5241822823576072  0.5444342495850876
  0.4894059792329699  0.5279785907884005  0.0460333958999826
 
  0.00000000E+00  0.00000000E+00  0.00000000E+00
  0.00000000E+00  0.00000000E+00  0.00000000E+00
  0.00000000E+00  0.00000000E+00  0.00000000E+00
  0.00000000E+00  0.00000000E+00  0.00000000E+00
  0.00000000E+00  0.00000000E+00  0.00000000E+00
  0.00000000E+00  0.00000000E+00  0.00000000E+00
  0.00000000E+00  0.00000000E+00  0.00000000E+00
  0.00000000E+00  0.00000000E+00  0.00000000E+00
  0.00000000E+00  0.00000000E+00  0.00000000E+00
  0.00000000E+00  0.00000000E+00  0.00000000E+00
  0.00000000E+00  0.00000000E+00  0.00000000E+00
  0.00000000E+00  0.00000000E+00  0.00000000E+00
  0.00000000E+00  0.00000000E+00  0.00000000E+00
  0.00000000E+00  0.00000000E+00  0.00000000E+00
  0.00000000E+00  0.00000000E+00  0.00000000E+00
  0.00000000E+00  0.00000000E+00  0.00000000E+00
  0.00000000E+00  0.00000000E+00  0.00000000E+00
  0.00000000E+00  0.00000000E+00  0.00000000E+00
  0.00000000E+00  0.00000000E+00  0.00000000E+00
  0.00000000E+00  0.00000000E+00  0.00000000E+00
