Poscar file generated with pyiron       
   1.00000000000000     
     8.4706329612016127    0.1106745419691465   -0.0777360604204294
    -0.2011283305000503   13.9238668051972425   -0.0066813921415355
     0.1551544107035417    0.0063620209887211    7.9974040271825615
   Cs   I    Pb
     4    12     4
Direct
  0.5023566988001711  0.1582793169553987  0.2499522246424730
  0.9833425874412296  0.3408795435678706  0.7639543926467030
  0.9890201030497942  0.6571298150234260  0.2656116174057677
  0.4984541958283168  0.8426631457280983  0.7473898508914950
  0.2520726396911208  0.0971976195667967  0.6555482449894273
  0.2357600744442007  0.4015336086102454  0.3594616970193137
  0.7365566791600690  0.0891647085655004  0.6593718005290086
  0.7510868932969093  0.4106439744031107  0.3541824830320388
  0.5002256643842439  0.3181145662981900  0.8605967143951293
  0.9888066260893991  0.1812248064920086  0.1538479367769741
  0.7420666111060192  0.5982784100963938  0.8540170749830426
  0.7439822586910716  0.9019643172749123  0.1610714117805022
  0.2256489411620048  0.5866653101914823  0.8597103460162498
  0.2604855513708837  0.9115753151665161  0.1536831831684457
  0.0090159987139012  0.8181386189477157  0.6537064846324766
  0.4772794201798967  0.6811094731644934  0.3606724626747326
  0.9994637436828381  0.0000964062024799  0.4168030803604378
  0.9981080000466993  0.9992461708808342  0.9169445957316910
  0.4879731040709258  0.4991662291774234  0.5975688506597847
  0.4886249343084779  0.5000925159161508  0.0974476828354495
 
  0.00000000E+00  0.00000000E+00  0.00000000E+00
  0.00000000E+00  0.00000000E+00  0.00000000E+00
  0.00000000E+00  0.00000000E+00  0.00000000E+00
  0.00000000E+00  0.00000000E+00  0.00000000E+00
  0.00000000E+00  0.00000000E+00  0.00000000E+00
  0.00000000E+00  0.00000000E+00  0.00000000E+00
  0.00000000E+00  0.00000000E+00  0.00000000E+00
  0.00000000E+00  0.00000000E+00  0.00000000E+00
  0.00000000E+00  0.00000000E+00  0.00000000E+00
  0.00000000E+00  0.00000000E+00  0.00000000E+00
  0.00000000E+00  0.00000000E+00  0.00000000E+00
  0.00000000E+00  0.00000000E+00  0.00000000E+00
  0.00000000E+00  0.00000000E+00  0.00000000E+00
  0.00000000E+00  0.00000000E+00  0.00000000E+00
  0.00000000E+00  0.00000000E+00  0.00000000E+00
  0.00000000E+00  0.00000000E+00  0.00000000E+00
  0.00000000E+00  0.00000000E+00  0.00000000E+00
  0.00000000E+00  0.00000000E+00  0.00000000E+00
  0.00000000E+00  0.00000000E+00  0.00000000E+00
  0.00000000E+00  0.00000000E+00  0.00000000E+00
