Poscar file generated with pyiron       
   1.00000000000000     
     8.2513764362534072    0.1389775522801180    1.3794840662482291
    -0.0034085145147290   14.6703125139918686   -1.0565848858484859
     0.0172950250605216   -0.0493979318456019    7.8423721158463646
   Cs   I    Pb
     4    12     4
Direct
  0.4791325062090880  0.1838950658216511  0.2917078705222867
  0.9783356043381217  0.3234772283594637  0.7599453022076174
  0.9810527602788900  0.6643596632612078  0.3008171328766963
  0.4764126409608563  0.8429597603011494  0.7509365023818197
  0.2464369660021028  0.0789468784184659  0.7209018540682656
  0.2110042721756638  0.4282746512265065  0.3308288670475175
  0.7095676951243206  0.0999445100973143  0.8279483335613578
  0.7479895640024176  0.4075611716415731  0.2236558065363392
  0.4581199790383619  0.3305408378266542  0.7687708683643592
  0.9996776940928195  0.1767722358175300  0.2826943159860075
  0.7749884213154811  0.5694229481379048  0.7492659055097449
  0.6821833920080513  0.9382146926329673  0.3025687427062806
  0.2389439914586797  0.6126226287589146  0.8463094706203239
  0.2180964621587320  0.8944222698056975  0.2053372077995947
  0.9530273330419253  0.8276477094184195  0.7378163097938885
  0.5041844234168175  0.6797363010923748  0.3138466748054535
  0.9692528721583994  0.0020932478442255  0.5118393442211107
  0.9698926727095823  0.0013736203671012  0.0142809852943629
  0.4882627866788875  0.5053448839178212  0.5397376146738696
  0.4873824226786740  0.5058699018074723  0.0373035655053402
 
  0.00000000E+00  0.00000000E+00  0.00000000E+00
  0.00000000E+00  0.00000000E+00  0.00000000E+00
  0.00000000E+00  0.00000000E+00  0.00000000E+00
  0.00000000E+00  0.00000000E+00  0.00000000E+00
  0.00000000E+00  0.00000000E+00  0.00000000E+00
  0.00000000E+00  0.00000000E+00  0.00000000E+00
  0.00000000E+00  0.00000000E+00  0.00000000E+00
  0.00000000E+00  0.00000000E+00  0.00000000E+00
  0.00000000E+00  0.00000000E+00  0.00000000E+00
  0.00000000E+00  0.00000000E+00  0.00000000E+00
  0.00000000E+00  0.00000000E+00  0.00000000E+00
  0.00000000E+00  0.00000000E+00  0.00000000E+00
  0.00000000E+00  0.00000000E+00  0.00000000E+00
  0.00000000E+00  0.00000000E+00  0.00000000E+00
  0.00000000E+00  0.00000000E+00  0.00000000E+00
  0.00000000E+00  0.00000000E+00  0.00000000E+00
  0.00000000E+00  0.00000000E+00  0.00000000E+00
  0.00000000E+00  0.00000000E+00  0.00000000E+00
  0.00000000E+00  0.00000000E+00  0.00000000E+00
  0.00000000E+00  0.00000000E+00  0.00000000E+00
