Poscar file generated with pyiron       
   1.00000000000000     
     8.3712400621321343   -0.1872016959410606    0.9328273207142078
     0.3044766111246274   14.2811009031268430    0.2347204859656079
    -0.0596407418673925   -0.1499742210559612    7.8870189022194488
   Cs   I    Pb
     4    12     4
Direct
  0.4978932998503142  0.1770604825300921  0.2362289630264547
  0.9606422686749878  0.3525196878824093  0.7844879629711495
  0.9567188501424124  0.6750253277305965  0.2748019069972852
  0.4968139959481913  0.8532175826781021  0.7276022569985829
  0.2529887497271992  0.0988270146106171  0.6541699664866925
  0.2057774418658275  0.4215333943086186  0.3593240526908916
  0.7273121321055449  0.1059130159660900  0.7110457266020728
  0.7333698913233802  0.4220994004899745  0.2935426071229049
  0.4566423014833291  0.3338798645777949  0.8383683090841089
  0.0049995184012550  0.1897383763970192  0.1716924244517751
  0.7319303636667490  0.6019800400298525  0.8004403237650157
  0.7172362139797107  0.9267913822604952  0.2140824706941096
  0.2074331795749358  0.6045607785968899  0.8543815688711309
  0.2423601690888036  0.9141562268531054  0.1512067204038987
  0.9898190322810329  0.8336140820786831  0.6710562322789384
  0.4617205647125039  0.6901721101219296  0.3394548830694142
  0.9893463199628209  0.0131803741818521  0.4359403484405094
  0.9874932321100306  0.0103432689566915  0.9366455701782123
  0.4683766193205771  0.5106228946217524  0.5736615232787344
  0.4651731747437926  0.5137832745324731  0.0737328948436042
 
  0.00000000E+00  0.00000000E+00  0.00000000E+00
  0.00000000E+00  0.00000000E+00  0.00000000E+00
  0.00000000E+00  0.00000000E+00  0.00000000E+00
  0.00000000E+00  0.00000000E+00  0.00000000E+00
  0.00000000E+00  0.00000000E+00  0.00000000E+00
  0.00000000E+00  0.00000000E+00  0.00000000E+00
  0.00000000E+00  0.00000000E+00  0.00000000E+00
  0.00000000E+00  0.00000000E+00  0.00000000E+00
  0.00000000E+00  0.00000000E+00  0.00000000E+00
  0.00000000E+00  0.00000000E+00  0.00000000E+00
  0.00000000E+00  0.00000000E+00  0.00000000E+00
  0.00000000E+00  0.00000000E+00  0.00000000E+00
  0.00000000E+00  0.00000000E+00  0.00000000E+00
  0.00000000E+00  0.00000000E+00  0.00000000E+00
  0.00000000E+00  0.00000000E+00  0.00000000E+00
  0.00000000E+00  0.00000000E+00  0.00000000E+00
  0.00000000E+00  0.00000000E+00  0.00000000E+00
  0.00000000E+00  0.00000000E+00  0.00000000E+00
  0.00000000E+00  0.00000000E+00  0.00000000E+00
  0.00000000E+00  0.00000000E+00  0.00000000E+00
