Poscar file generated with pyiron       
   1.00000000000000     
     8.2888114523821788    0.1224789070589898    1.0741277190647156
    -0.1405585512884042   14.6871578884666345   -0.5482707438005224
     0.2974943434664982    0.0300700375476837    7.8304124602741183
   Cs   I    Pb
     4    12     4
Direct
  0.4765510295816185  0.2039374518883176  0.2263928164323483
  0.9704613904874396  0.3381400474444911  0.7413830800547440
  0.9795702908931899  0.6790372538188858  0.2651658955830885
  0.4691560146349970  0.8633601768816161  0.7007598646639874
  0.2406123984142444  0.0984993478865247  0.6519253248836328
  0.2056927512169448  0.4438253056960773  0.3135910302807443
  0.7029288869310140  0.1146458415474595  0.7577063398341435
  0.7434579661845374  0.4279327819298444  0.2074144293469987
  0.4439227162524533  0.3488223853030258  0.7679096534013378
  0.0015703180639040  0.1935808697177555  0.1970360438872514
  0.7735693492888654  0.5838178913622482  0.7200419289922194
  0.6729716892758396  0.9581028885538483  0.2454013048576711
  0.2376027017889596  0.6324203237244446  0.8122973270327675
  0.2093464549442637  0.9106359011735708  0.1525600928222423
  0.9457492686415659  0.8450247581180096  0.6844660818328764
  0.5015878438366276  0.6973285833518054  0.2806349426833169
  0.9634648009766997  0.0201417283716732  0.4487986831934927
  0.9640216319903332  0.0175326374265816  0.9520089211544055
  0.4830703989742650  0.5222842323411426  0.5164251763726821
  0.4820820479886759  0.5247662570256654  0.0131975233262363
 
  0.00000000E+00  0.00000000E+00  0.00000000E+00
  0.00000000E+00  0.00000000E+00  0.00000000E+00
  0.00000000E+00  0.00000000E+00  0.00000000E+00
  0.00000000E+00  0.00000000E+00  0.00000000E+00
  0.00000000E+00  0.00000000E+00  0.00000000E+00
  0.00000000E+00  0.00000000E+00  0.00000000E+00
  0.00000000E+00  0.00000000E+00  0.00000000E+00
  0.00000000E+00  0.00000000E+00  0.00000000E+00
  0.00000000E+00  0.00000000E+00  0.00000000E+00
  0.00000000E+00  0.00000000E+00  0.00000000E+00
  0.00000000E+00  0.00000000E+00  0.00000000E+00
  0.00000000E+00  0.00000000E+00  0.00000000E+00
  0.00000000E+00  0.00000000E+00  0.00000000E+00
  0.00000000E+00  0.00000000E+00  0.00000000E+00
  0.00000000E+00  0.00000000E+00  0.00000000E+00
  0.00000000E+00  0.00000000E+00  0.00000000E+00
  0.00000000E+00  0.00000000E+00  0.00000000E+00
  0.00000000E+00  0.00000000E+00  0.00000000E+00
  0.00000000E+00  0.00000000E+00  0.00000000E+00
  0.00000000E+00  0.00000000E+00  0.00000000E+00
