Poscar file generated with pyiron       
   1.00000000000000     
     8.2530915155611861    0.0741422991599689    1.3803840921488628
    -0.1739240380998111   14.5470219783224053    0.0825135130534000
     0.0266538252826193   -0.0080768926692668    7.8808077431835599
   Cs   I    Pb
     4    12     4
Direct
  0.4912790677372240  0.1916548011634799  0.1993800604929154
  0.9831578392163499  0.3610381380368681  0.7631429890730739
  0.9753754181026960  0.7023619519467623  0.2523833921221147
  0.4915717063820982  0.8535136296643021  0.7060703167912806
  0.2437953264743133  0.1280538128635957  0.6452833214417802
  0.2325414009182822  0.4226019998061800  0.3171815310850361
  0.7083097058099964  0.0998494133779037  0.7409307119556620
  0.7671202288468614  0.4562323563681526  0.2209480430284814
  0.4997421977468200  0.3511668411479500  0.7828180463078815
  0.9776457439066762  0.2026820536631096  0.1788636325994294
  0.7440076757153506  0.6207848123316362  0.7213081210268357
  0.7247208176043372  0.9357150527773116  0.2418517951326039
  0.2072026788597395  0.6054455437783410  0.8218409121876052
  0.2627721877018672  0.9455955766138762  0.1411449665013260
  0.0143096116657976  0.8520031886082603  0.6755883288290875
  0.4510671544985713  0.7014124936081465  0.2885273974172972
  0.9896144379888718  0.0294860187538027  0.4416264086576104
  0.9892127949722959  0.0255946355338768  0.9402592544401823
  0.4829068122902503  0.5241699456860383  0.5208257032349130
  0.4831880267742130  0.5281863801060624  0.0223176311290149
 
  0.00000000E+00  0.00000000E+00  0.00000000E+00
  0.00000000E+00  0.00000000E+00  0.00000000E+00
  0.00000000E+00  0.00000000E+00  0.00000000E+00
  0.00000000E+00  0.00000000E+00  0.00000000E+00
  0.00000000E+00  0.00000000E+00  0.00000000E+00
  0.00000000E+00  0.00000000E+00  0.00000000E+00
  0.00000000E+00  0.00000000E+00  0.00000000E+00
  0.00000000E+00  0.00000000E+00  0.00000000E+00
  0.00000000E+00  0.00000000E+00  0.00000000E+00
  0.00000000E+00  0.00000000E+00  0.00000000E+00
  0.00000000E+00  0.00000000E+00  0.00000000E+00
  0.00000000E+00  0.00000000E+00  0.00000000E+00
  0.00000000E+00  0.00000000E+00  0.00000000E+00
  0.00000000E+00  0.00000000E+00  0.00000000E+00
  0.00000000E+00  0.00000000E+00  0.00000000E+00
  0.00000000E+00  0.00000000E+00  0.00000000E+00
  0.00000000E+00  0.00000000E+00  0.00000000E+00
  0.00000000E+00  0.00000000E+00  0.00000000E+00
  0.00000000E+00  0.00000000E+00  0.00000000E+00
  0.00000000E+00  0.00000000E+00  0.00000000E+00
