Poscar file generated with pyiron       
   1.00000000000000     
     8.4590067844147949    0.1546261162618389    0.4146053994660640
    -0.2883199808962443   13.9475953559443369    0.0810410580725740
    -0.2946671648535569   -0.0548735396210959    7.9839903844092479
   Cs   I    Pb
     4    12     4
Direct
  0.4859743280075227  0.1703981144830451  0.2814723131813908
  0.9671743343930854  0.3524462831909158  0.7954843909612149
  0.9720473481570608  0.6699134840946760  0.2961485841170657
  0.4812239693628450  0.8532228317546051  0.7789773236683516
  0.2352858538931329  0.1089759547406325  0.6872222399444921
  0.2181099994414543  0.4146897021829583  0.3898796169902343
  0.7192878454639536  0.1010895372642404  0.6931587055566041
  0.7345247450883107  0.4225902416130412  0.3832212673205984
  0.4812225062532914  0.3300547668511289  0.8907845651569144
  0.9724299077376064  0.1933061874336205  0.1858593704627569
  0.7275217878567170  0.6089891655461471  0.8834537584613792
  0.7257043048092063  0.9148708903981201  0.1933865165845400
  0.2109433370083233  0.6002553531186442  0.8898313373407554
  0.2429053644269932  0.9232559614025757  0.1861852412270041
  0.9903938290870730  0.8306168678026964  0.6851079529940729
  0.4620258267007883  0.6927523059657019  0.3906902627477891
  0.9819697702155282  0.0125892340809611  0.4489499731392569
  0.9810857236994948  0.0112557388365217  0.9492497810590199
  0.4718065821686761  0.5109547466922528  0.6274748774552463
  0.4723611519761083  0.5120546223494294  0.1271697416384759
 
  0.00000000E+00  0.00000000E+00  0.00000000E+00
  0.00000000E+00  0.00000000E+00  0.00000000E+00
  0.00000000E+00  0.00000000E+00  0.00000000E+00
  0.00000000E+00  0.00000000E+00  0.00000000E+00
  0.00000000E+00  0.00000000E+00  0.00000000E+00
  0.00000000E+00  0.00000000E+00  0.00000000E+00
  0.00000000E+00  0.00000000E+00  0.00000000E+00
  0.00000000E+00  0.00000000E+00  0.00000000E+00
  0.00000000E+00  0.00000000E+00  0.00000000E+00
  0.00000000E+00  0.00000000E+00  0.00000000E+00
  0.00000000E+00  0.00000000E+00  0.00000000E+00
  0.00000000E+00  0.00000000E+00  0.00000000E+00
  0.00000000E+00  0.00000000E+00  0.00000000E+00
  0.00000000E+00  0.00000000E+00  0.00000000E+00
  0.00000000E+00  0.00000000E+00  0.00000000E+00
  0.00000000E+00  0.00000000E+00  0.00000000E+00
  0.00000000E+00  0.00000000E+00  0.00000000E+00
  0.00000000E+00  0.00000000E+00  0.00000000E+00
  0.00000000E+00  0.00000000E+00  0.00000000E+00
  0.00000000E+00  0.00000000E+00  0.00000000E+00
