Poscar file generated with pyiron       
   1.00000000000000     
     8.4581862313709220    0.1051706556796891    0.4002502789041820
    -0.1478708358765149   13.9167228011279214    0.1829139783520977
    -0.3122421891005269   -0.1140686573637516    7.9925144927318916
   Cs   I    Pb
     4    12     4
Direct
  0.4718430717151966  0.1671499257923145  0.2765688278081999
  0.9688347603696192  0.3508407766039428  0.7927684561921938
  0.9625334220390042  0.6675309499427793  0.2917367352132184
  0.4780886706025008  0.8508659536941898  0.7781072335162873
  0.2352118170534020  0.0977994569549123  0.6836044076338003
  0.2059853905439850  0.4206703907256945  0.3870381013448284
  0.7183535210457215  0.1066670102580771  0.6884407683862592
  0.7224488350987779  0.4117063340936749  0.3814173451014144
  0.4576672917366972  0.3277028150088569  0.8879293599175797
  0.9833300910831340  0.1907910331737050  0.1819947345641224
  0.7294524765156896  0.5984510615730896  0.8826935869517731
  0.7115757078766423  0.9197357040596723  0.1878213048053253
  0.2137246538770469  0.6068368799227675  0.8860506881497064
  0.2276176676552266  0.9117347715658238  0.1837965676777542
  0.9646980295938790  0.8273681191033587  0.6817077813561021
  0.4760023564867671  0.6909699578782620  0.3883380768726759
  0.9731816642266967  0.0096091107723112  0.4452406651847672
  0.9741071028389292  0.0085497207596318  0.9451192364388706
  0.4680593526107874  0.5088524813505896  0.6249477113910175
  0.4666965215639367  0.5097547699135250  0.1250360929228878
 
  0.00000000E+00  0.00000000E+00  0.00000000E+00
  0.00000000E+00  0.00000000E+00  0.00000000E+00
  0.00000000E+00  0.00000000E+00  0.00000000E+00
  0.00000000E+00  0.00000000E+00  0.00000000E+00
  0.00000000E+00  0.00000000E+00  0.00000000E+00
  0.00000000E+00  0.00000000E+00  0.00000000E+00
  0.00000000E+00  0.00000000E+00  0.00000000E+00
  0.00000000E+00  0.00000000E+00  0.00000000E+00
  0.00000000E+00  0.00000000E+00  0.00000000E+00
  0.00000000E+00  0.00000000E+00  0.00000000E+00
  0.00000000E+00  0.00000000E+00  0.00000000E+00
  0.00000000E+00  0.00000000E+00  0.00000000E+00
  0.00000000E+00  0.00000000E+00  0.00000000E+00
  0.00000000E+00  0.00000000E+00  0.00000000E+00
  0.00000000E+00  0.00000000E+00  0.00000000E+00
  0.00000000E+00  0.00000000E+00  0.00000000E+00
  0.00000000E+00  0.00000000E+00  0.00000000E+00
  0.00000000E+00  0.00000000E+00  0.00000000E+00
  0.00000000E+00  0.00000000E+00  0.00000000E+00
  0.00000000E+00  0.00000000E+00  0.00000000E+00
