Poscar file generated with pyiron       
   1.00000000000000     
     8.2772346727855304    0.0293740549060722    1.1894935913558935
     0.1223802465302613   14.6754049024997943   -0.7821925877925975
     0.2302820475408257   -0.0938172084008961    7.8353075132189058
   Cs   I    Pb
     4    12     4
Direct
  0.4762916603745934  0.1833097924783429  0.2549703057384921
  0.9772196198270328  0.3222259514533631  0.7309410706918398
  0.9812836198056408  0.6661292201867268  0.2694278048544242
  0.4725090237047246  0.8390187509561233  0.7171451391260001
  0.2468293059537859  0.0776328065782583  0.6860366194373915
  0.2073213821699261  0.4277954962497201  0.3010757331999476
  0.7085359289315649  0.0984846312642299  0.7940166740547404
  0.7459059290311028  0.4064644943622636  0.1936916581692763
  0.4556684129287752  0.3290872782144687  0.7423889308090447
  0.9994717107977102  0.1760042228171443  0.2444745827029536
  0.7728649249937269  0.5681676869104635  0.7131299244785994
  0.6809493271741975  0.9377371971152821  0.2742061454183622
  0.2344319006537569  0.6096348127695302  0.8137586029081102
  0.2196313856021471  0.8951391626985995  0.1739474055179508
  0.9502034214066597  0.8266568472325111  0.7093363780531047
  0.5043314814033384  0.6784930479153276  0.2776475874708467
  0.9685654270676252  0.0016130369381349  0.4796364951821471
  0.9690479401033743  0.0003944176226666  0.9818307080333960
  0.4856366949687630  0.5036133275196296  0.5076582823926643
  0.4856483296525723  0.5046646720034693  0.0054256978108914
 
  0.00000000E+00  0.00000000E+00  0.00000000E+00
  0.00000000E+00  0.00000000E+00  0.00000000E+00
  0.00000000E+00  0.00000000E+00  0.00000000E+00
  0.00000000E+00  0.00000000E+00  0.00000000E+00
  0.00000000E+00  0.00000000E+00  0.00000000E+00
  0.00000000E+00  0.00000000E+00  0.00000000E+00
  0.00000000E+00  0.00000000E+00  0.00000000E+00
  0.00000000E+00  0.00000000E+00  0.00000000E+00
  0.00000000E+00  0.00000000E+00  0.00000000E+00
  0.00000000E+00  0.00000000E+00  0.00000000E+00
  0.00000000E+00  0.00000000E+00  0.00000000E+00
  0.00000000E+00  0.00000000E+00  0.00000000E+00
  0.00000000E+00  0.00000000E+00  0.00000000E+00
  0.00000000E+00  0.00000000E+00  0.00000000E+00
  0.00000000E+00  0.00000000E+00  0.00000000E+00
  0.00000000E+00  0.00000000E+00  0.00000000E+00
  0.00000000E+00  0.00000000E+00  0.00000000E+00
  0.00000000E+00  0.00000000E+00  0.00000000E+00
  0.00000000E+00  0.00000000E+00  0.00000000E+00
  0.00000000E+00  0.00000000E+00  0.00000000E+00
