Poscar file generated with pyiron       
   1.00000000000000     
     8.3000387609512423    0.2520882941473963    1.1289767298724300
    -0.3390602806553897   14.5305225726976026   -0.5314183147973579
     0.2487288274937530    0.2488108663588599    7.8721501809973180
   Cs   I    Pb
     4    12     4
Direct
  0.4740154559745726  0.1903954421419884  0.2113611857004171
  0.9593497742696362  0.3416039281461078  0.7595414332686589
  0.9611537854421238  0.6803184091416764  0.2656155394199476
  0.4703622669979596  0.8517276305813142  0.7044170758354605
  0.2431201006059256  0.0960148608283179  0.6448220904452764
  0.1890551670947985  0.4363183551743733  0.3255909748692457
  0.7062911359140575  0.1087567856674141  0.7449496682214571
  0.7262679371633813  0.4229872142009180  0.2259367053963162
  0.4342740778426150  0.3412670436881647  0.7924333073442508
  0.9990067253899969  0.1905716507821577  0.1785245471563653
  0.7467894107532232  0.5872339639829431  0.7265269603990666
  0.6855177461421595  0.9447120303081572  0.2439498282466156
  0.2123591034808342  0.6194945925392170  0.8210846292141510
  0.2196185548710957  0.9121854114778003  0.1496313835860427
  0.9545434849610195  0.8399898641617508  0.6822402475546306
  0.4775281312211764  0.6919816833936194  0.2889520972512771
  0.9683957501448718  0.0172121480289411  0.4438237578997239
  0.9688886468231021  0.0130835585410798  0.9452329664249031
  0.4639025560890011  0.5146757329453099  0.5269763298843800
  0.4637295148362310  0.5188423367243107  0.0255253011046873
 
  0.00000000E+00  0.00000000E+00  0.00000000E+00
  0.00000000E+00  0.00000000E+00  0.00000000E+00
  0.00000000E+00  0.00000000E+00  0.00000000E+00
  0.00000000E+00  0.00000000E+00  0.00000000E+00
  0.00000000E+00  0.00000000E+00  0.00000000E+00
  0.00000000E+00  0.00000000E+00  0.00000000E+00
  0.00000000E+00  0.00000000E+00  0.00000000E+00
  0.00000000E+00  0.00000000E+00  0.00000000E+00
  0.00000000E+00  0.00000000E+00  0.00000000E+00
  0.00000000E+00  0.00000000E+00  0.00000000E+00
  0.00000000E+00  0.00000000E+00  0.00000000E+00
  0.00000000E+00  0.00000000E+00  0.00000000E+00
  0.00000000E+00  0.00000000E+00  0.00000000E+00
  0.00000000E+00  0.00000000E+00  0.00000000E+00
  0.00000000E+00  0.00000000E+00  0.00000000E+00
  0.00000000E+00  0.00000000E+00  0.00000000E+00
  0.00000000E+00  0.00000000E+00  0.00000000E+00
  0.00000000E+00  0.00000000E+00  0.00000000E+00
  0.00000000E+00  0.00000000E+00  0.00000000E+00
  0.00000000E+00  0.00000000E+00  0.00000000E+00
