Poscar file generated with pyiron       
   1.00000000000000     
     8.2617376655339712    0.0416166468300509    1.3333944305013345
    -0.0977445934044706   14.5578320295760157    0.0835990982685255
     0.0406015617961745    0.0387672548162206    7.8787557415621299
   Cs   I    Pb
     4    12     4
Direct
  0.4799066645236535  0.1887296596373003  0.2142417534060675
  0.9742266368190702  0.3652914304611766  0.7820623550530088
  0.9687330393905917  0.7028293679631957  0.2712803808336969
  0.4853750865550615  0.8521657122872149  0.7241500659340439
  0.2287752793494664  0.1327336515424618  0.6624876570866560
  0.2285323241408241  0.4204217533534849  0.3357204767033917
  0.6953612956488775  0.0974717791032203  0.7531584409679682
  0.7620211318858946  0.4577745919061565  0.2449345216487655
  0.4925115627120458  0.3511192468302788  0.8045712697983343
  0.9617650069014215  0.2029226784360626  0.1937687666128636
  0.7383564402243860  0.6204896247960867  0.7404543580548935
  0.7172875434458383  0.9337818209186369  0.2575876015553369
  0.2014005157567252  0.6061217647673260  0.8416188643409852
  0.2544254595757271  0.9472790176726511  0.1567061349981101
  0.0107334410572782  0.8525195237971084  0.6926459538097545
  0.4427576485643801  0.7013361060805837  0.3062751503371054
  0.9800888479927276  0.0298845160242708  0.4574308060549131
  0.9786889769808110  0.0262140116736235  0.9554712067098827
  0.4760670890441892  0.5240617959507903  0.5409819156009344
  0.4773913399253137  0.5278964785313913  0.0429055387120124
 
  0.00000000E+00  0.00000000E+00  0.00000000E+00
  0.00000000E+00  0.00000000E+00  0.00000000E+00
  0.00000000E+00  0.00000000E+00  0.00000000E+00
  0.00000000E+00  0.00000000E+00  0.00000000E+00
  0.00000000E+00  0.00000000E+00  0.00000000E+00
  0.00000000E+00  0.00000000E+00  0.00000000E+00
  0.00000000E+00  0.00000000E+00  0.00000000E+00
  0.00000000E+00  0.00000000E+00  0.00000000E+00
  0.00000000E+00  0.00000000E+00  0.00000000E+00
  0.00000000E+00  0.00000000E+00  0.00000000E+00
  0.00000000E+00  0.00000000E+00  0.00000000E+00
  0.00000000E+00  0.00000000E+00  0.00000000E+00
  0.00000000E+00  0.00000000E+00  0.00000000E+00
  0.00000000E+00  0.00000000E+00  0.00000000E+00
  0.00000000E+00  0.00000000E+00  0.00000000E+00
  0.00000000E+00  0.00000000E+00  0.00000000E+00
  0.00000000E+00  0.00000000E+00  0.00000000E+00
  0.00000000E+00  0.00000000E+00  0.00000000E+00
  0.00000000E+00  0.00000000E+00  0.00000000E+00
  0.00000000E+00  0.00000000E+00  0.00000000E+00
