Poscar file generated with pyiron       
   1.00000000000000     
     8.3552111686895358    0.0326336492365412    0.9583375600643033
    -0.0716178332032792   14.3382702287091650    0.1912379222296192
     0.0724421171153679   -0.1232511422211474    7.8937405305227735
   Cs   I    Pb
     4    12     4
Direct
  0.4942453017862504  0.1707049825341271  0.2509038089724203
  0.9594571596461651  0.3428055740725359  0.8061447445277572
  0.9567698465488710  0.6680085396831843  0.3011632484513840
  0.4923758517805958  0.8440306131237379  0.7463730099522039
  0.2514126711827914  0.0914683135038640  0.6742847850765998
  0.2022538743155069  0.4153150522290545  0.3784460663324652
  0.7225405634628553  0.0970761412175188  0.7448904741537324
  0.7316720750434996  0.4151319881795278  0.3044386256968240
  0.4517933153683822  0.3274445528462123  0.8544768417648549
  0.0028979521847240  0.1819201767778245  0.1958700115304699
  0.7337051045684498  0.5915693344594593  0.8077306701574315
  0.7135704906689427  0.9208808084489881  0.2457150633997294
  0.2066383172748011  0.5991240479526937  0.8755956579673118
  0.2406677142120278  0.9074294208801557  0.1744734699197990
  0.9866122426434597  0.8270752422791869  0.6965405089799271
  0.4615742723322797  0.6823453410379251  0.3546578189749183
  0.9859688395352662  0.0063273864610051  0.4615705354165235
  0.9854373704526272  0.0028054610985090  0.9619566697172154
  0.4658642184417272  0.5033527672599275  0.5895399122942511
  0.4642100555732323  0.5066760873894824  0.0892378993401322
 
  0.00000000E+00  0.00000000E+00  0.00000000E+00
  0.00000000E+00  0.00000000E+00  0.00000000E+00
  0.00000000E+00  0.00000000E+00  0.00000000E+00
  0.00000000E+00  0.00000000E+00  0.00000000E+00
  0.00000000E+00  0.00000000E+00  0.00000000E+00
  0.00000000E+00  0.00000000E+00  0.00000000E+00
  0.00000000E+00  0.00000000E+00  0.00000000E+00
  0.00000000E+00  0.00000000E+00  0.00000000E+00
  0.00000000E+00  0.00000000E+00  0.00000000E+00
  0.00000000E+00  0.00000000E+00  0.00000000E+00
  0.00000000E+00  0.00000000E+00  0.00000000E+00
  0.00000000E+00  0.00000000E+00  0.00000000E+00
  0.00000000E+00  0.00000000E+00  0.00000000E+00
  0.00000000E+00  0.00000000E+00  0.00000000E+00
  0.00000000E+00  0.00000000E+00  0.00000000E+00
  0.00000000E+00  0.00000000E+00  0.00000000E+00
  0.00000000E+00  0.00000000E+00  0.00000000E+00
  0.00000000E+00  0.00000000E+00  0.00000000E+00
  0.00000000E+00  0.00000000E+00  0.00000000E+00
  0.00000000E+00  0.00000000E+00  0.00000000E+00
