Poscar file generated with pyiron       
   1.00000000000000     
     8.2614212711959176    0.0920950990714034    1.2879426591738052
    -0.1263380165647414   14.6415222318703613    0.0005448570253671
     0.0624911970763595    0.1010842922327404    7.8560279768656773
   Cs   I    Pb
     4    12     4
Direct
  0.4684732228271825  0.1861426310436470  0.2114792433090523
  0.9814142602482109  0.3704115426009921  0.7844664174027367
  0.9681561351558775  0.7089476567257917  0.2664607367432115
  0.4779814829966481  0.8500524378722324  0.7271833679733226
  0.2157111605346321  0.1361477362029777  0.6639146335255705
  0.2358434738085263  0.4191275992631895  0.3330893263110682
  0.6800915290607662  0.0942438288123917  0.7534866520353686
  0.7708410306590192  0.4642916365544318  0.2432967307211582
  0.5012907872674456  0.3528900515242250  0.8014480125347209
  0.9496024303461811  0.2044705143548236  0.1956188473771316
  0.7403178276368978  0.6227953319103949  0.7389598506052993
  0.7066137112281364  0.9359689406461078  0.2585888031841995
  0.2049559701740438  0.6079805706844419  0.8393269232546979
  0.2426842851977375  0.9478792162824338  0.1581706153654560
  0.0042762412428975  0.8553318604162027  0.6946340088944281
  0.4417920123024658  0.7017057528941970  0.3032644240323529
  0.9683179742259549  0.0319033772059146  0.4585010759119080
  0.9675041678995244  0.0284991124290804  0.9559638304481808
  0.4809232917199049  0.5253417911109022  0.5386925759736080
  0.4816287468378149  0.5287006792094778  0.0414142683091581
 
  0.00000000E+00  0.00000000E+00  0.00000000E+00
  0.00000000E+00  0.00000000E+00  0.00000000E+00
  0.00000000E+00  0.00000000E+00  0.00000000E+00
  0.00000000E+00  0.00000000E+00  0.00000000E+00
  0.00000000E+00  0.00000000E+00  0.00000000E+00
  0.00000000E+00  0.00000000E+00  0.00000000E+00
  0.00000000E+00  0.00000000E+00  0.00000000E+00
  0.00000000E+00  0.00000000E+00  0.00000000E+00
  0.00000000E+00  0.00000000E+00  0.00000000E+00
  0.00000000E+00  0.00000000E+00  0.00000000E+00
  0.00000000E+00  0.00000000E+00  0.00000000E+00
  0.00000000E+00  0.00000000E+00  0.00000000E+00
  0.00000000E+00  0.00000000E+00  0.00000000E+00
  0.00000000E+00  0.00000000E+00  0.00000000E+00
  0.00000000E+00  0.00000000E+00  0.00000000E+00
  0.00000000E+00  0.00000000E+00  0.00000000E+00
  0.00000000E+00  0.00000000E+00  0.00000000E+00
  0.00000000E+00  0.00000000E+00  0.00000000E+00
  0.00000000E+00  0.00000000E+00  0.00000000E+00
  0.00000000E+00  0.00000000E+00  0.00000000E+00
