Poscar file generated with pyiron       
   1.00000000000000     
     8.2461753180146466    0.1701834353204786    1.3621818541442969
    -0.0730307825807550   14.6699790139941086   -1.0619051526785939
     0.0360343816807045   -0.0498346348136510    7.8390973749112245
   Cs   I    Pb
     4    12     4
Direct
  0.4780308695611643  0.1789931683206114  0.2891526685349521
  0.9806230578784778  0.3189156477885101  0.7539269671557195
  0.9843460406942353  0.6603505876539051  0.2956083023194012
  0.4742131063255979  0.8377470089935747  0.7476497079844245
  0.2457835209969044  0.0744344074888915  0.7207719003312419
  0.2127802779493664  0.4236039043830830  0.3225471809293126
  0.7092482325443576  0.0958497504590813  0.8269636325344886
  0.7493878706308025  0.4022362019642886  0.2160912956647556
  0.4602468129667940  0.3258540108250552  0.7602538168901937
  0.9985283625088435  0.1722021492319496  0.2825375897258205
  0.7774029006567760  0.5640618122399312  0.7407171080788535
  0.6809687462065469  0.9341517031227818  0.3026597871268059
  0.2403446884181749  0.6071866850381973  0.8390209728012422
  0.2180325181129127  0.8907292438003123  0.2040801582287607
  0.9511344926707933  0.8232165581503327  0.7374563133690656
  0.5077261111405436  0.6748678942901972  0.3053658847467228
  0.9682356782516932  0.9977068139855084  0.5113000763575473
  0.9685518957343179  0.9970119595242136  0.0134126450035476
  0.4904302687417447  0.5004489839363578  0.5317462081187547
  0.4899093267308472  0.5009533746424248  0.0296992787631608
 
  0.00000000E+00  0.00000000E+00  0.00000000E+00
  0.00000000E+00  0.00000000E+00  0.00000000E+00
  0.00000000E+00  0.00000000E+00  0.00000000E+00
  0.00000000E+00  0.00000000E+00  0.00000000E+00
  0.00000000E+00  0.00000000E+00  0.00000000E+00
  0.00000000E+00  0.00000000E+00  0.00000000E+00
  0.00000000E+00  0.00000000E+00  0.00000000E+00
  0.00000000E+00  0.00000000E+00  0.00000000E+00
  0.00000000E+00  0.00000000E+00  0.00000000E+00
  0.00000000E+00  0.00000000E+00  0.00000000E+00
  0.00000000E+00  0.00000000E+00  0.00000000E+00
  0.00000000E+00  0.00000000E+00  0.00000000E+00
  0.00000000E+00  0.00000000E+00  0.00000000E+00
  0.00000000E+00  0.00000000E+00  0.00000000E+00
  0.00000000E+00  0.00000000E+00  0.00000000E+00
  0.00000000E+00  0.00000000E+00  0.00000000E+00
  0.00000000E+00  0.00000000E+00  0.00000000E+00
  0.00000000E+00  0.00000000E+00  0.00000000E+00
  0.00000000E+00  0.00000000E+00  0.00000000E+00
  0.00000000E+00  0.00000000E+00  0.00000000E+00
