Poscar file generated with pyiron       
   1.00000000000000     
     8.2721704254735293    0.0574734342459085    1.2815863768855853
    -0.2041352825030613   14.6035245552088693    0.4787091351105277
     0.1433219367197675   -0.1289256280441586    7.8602713386823018
   Cs   I    Pb
     4    12     4
Direct
  0.4886550741063092  0.1870599893360941  0.2105796164137172
  0.9868290720140653  0.3589865089988887  0.7705501701470481
  0.9811005784006396  0.7015947199449692  0.2555385829723580
  0.4909403068122229  0.8450835997751616  0.7240499273056827
  0.2367651634265674  0.1279648723404771  0.6596169455013218
  0.2381259690741938  0.4174957170083915  0.3212506681300631
  0.6999448065681739  0.0916044623900682  0.7564618660273522
  0.7742271994590698  0.4548217897627752  0.2243585174940377
  0.5046966728353536  0.3471253722423450  0.7871466885318259
  0.9703164188277431  0.1990739768971959  0.1937585688136738
  0.7503451410259842  0.6159229025042566  0.7194430981670435
  0.7226783647861726  0.9310304507245478  0.2616684993589941
  0.2120501912593228  0.6013342164709520  0.8241559586962439
  0.2614447405043680  0.9445592302002155  0.1568208918671719
  0.0160409006962572  0.8490463028010248  0.6965768606865275
  0.4564005520785962  0.6970276854185837  0.2849218333561279
  0.9858848044546187  0.0260879925565746  0.4584822880841949
  0.9853264080875133  0.0226905420148712  0.9563443770343345
  0.4880753869719225  0.5201381733146614  0.5229589750560528
  0.4885281221633480  0.5234598641821194  0.0249658483212471
 
  0.00000000E+00  0.00000000E+00  0.00000000E+00
  0.00000000E+00  0.00000000E+00  0.00000000E+00
  0.00000000E+00  0.00000000E+00  0.00000000E+00
  0.00000000E+00  0.00000000E+00  0.00000000E+00
  0.00000000E+00  0.00000000E+00  0.00000000E+00
  0.00000000E+00  0.00000000E+00  0.00000000E+00
  0.00000000E+00  0.00000000E+00  0.00000000E+00
  0.00000000E+00  0.00000000E+00  0.00000000E+00
  0.00000000E+00  0.00000000E+00  0.00000000E+00
  0.00000000E+00  0.00000000E+00  0.00000000E+00
  0.00000000E+00  0.00000000E+00  0.00000000E+00
  0.00000000E+00  0.00000000E+00  0.00000000E+00
  0.00000000E+00  0.00000000E+00  0.00000000E+00
  0.00000000E+00  0.00000000E+00  0.00000000E+00
  0.00000000E+00  0.00000000E+00  0.00000000E+00
  0.00000000E+00  0.00000000E+00  0.00000000E+00
  0.00000000E+00  0.00000000E+00  0.00000000E+00
  0.00000000E+00  0.00000000E+00  0.00000000E+00
  0.00000000E+00  0.00000000E+00  0.00000000E+00
  0.00000000E+00  0.00000000E+00  0.00000000E+00
