SYSTEM=ref_RPA_DIAG #jobname
PREC=Normal
ALGO=Exact
LREAL=.FALSE.
LWAVE=.TRUE.
LORBIT=11
ISMEAR=0
LASPH=.TRUE.
EDIFF=1e-05
ENCUT=400
SIGMA=0.05
LCHARG=.FALSE.
ISPIN=1
IVDW=0
NCORE=1
NELM=1
LOPTICS=.FALSE.
ISTART=1
ICHARG=1
NBANDS=17514
